Ni4
1.000000
3.508036 0.000000 0.000000
0.000000 3.508036 0.000000
0.000000 0.000000 3.508036
Ni 
4 
Cartesian
1.797337 0.030923 1.756220 
