Cu O  H                                  
   1.00000000000000   
     33.400000000001    0.0000000000000000    0.0000000000000000
     0.0000000000000000    36.40000000    0.0000000000000000
     0.0000000000000000    0.0000000000000000   37.0000000000000000
   Cu   O    H    Ru     
   320  320  80   309
Selective Dynamics
Cartesian
5.094533	4.569606	3.27975	F	F	F
5.094533	13.669606	3.27975	F	F	F
5.094533	22.769608	3.27975	F	F	F
5.094533	31.869606	3.27975	F	F	F


		
		 
11.774532	4.569606	3.27975	F	F	F
11.774532	13.669606	3.27975	F	F	F
11.774532	22.769608	3.27975	F	F	F
11.774532	31.869606	3.27975	F	F	F
18.454533	4.569606	3.27975	F	F	F
18.454533	13.669606	3.27975	F	F	F
18.454533	22.769608	3.27975	F	F	F
18.454533	31.869606	3.27975	F	F	F
25.134533	4.569606	3.27975	F	F	F
25.134533	13.669606	3.27975	F	F	F
25.134533	22.769608	3.27975	F	F	F
25.134533	31.869606	3.27975	F	F	F
31.814533	4.569606	3.27975	F	F	F
31.814533	13.669606	3.27975	F	F	F
31.814533	22.769608	3.27975	F	F	F
31.814533	31.869606	3.27975	F	F	F
1.735223	4.63303	3.328577	F	F	F
1.735223	13.73303	3.328577	F	F	F
1.735223	22.833031	3.328577	F	F	F
1.735223	31.933031	3.328577	F	F	F
8.415223	4.63303	3.328577	F	F	F
8.415223	13.73303	3.328577	F	F	F
8.415223	22.833031	3.328577	F	F	F
8.415223	31.933031	3.328577	F	F	F
15.095222	4.63303	3.328577	F	F	F
15.095222	13.73303	3.328577	F	F	F
15.095222	22.833031	3.328577	F	F	F
15.095222	31.933031	3.328577	F	F	F
21.775223	4.63303	3.328577	F	F	F
21.775223	13.73303	3.328577	F	F	F
21.775223	22.833031	3.328577	F	F	F
21.775223	31.933031	3.328577	F	F	F
28.455223	4.63303	3.328577	F	F	F
28.455223	13.73303	3.328577	F	F	F
28.455223	22.833031	3.328577	F	F	F
28.455223	31.933031	3.328577	F	F	F
0.075475	6.849081	3.335285	F	F	F
0.075475	15.949081	3.335285	F	F	F
0.075475	25.049082	3.335285	F	F	F
0.075475	34.149082	3.335285	F	F	F
6.755475	6.849081	3.335285	F	F	F
6.755475	15.949081	3.335285	F	F	F
6.755475	25.049082	3.335285	F	F	F
6.755475	34.149082	3.335285	F	F	F
13.435474	6.849081	3.335285	F	F	F
13.435474	15.949081	3.335285	F	F	F
13.435474	25.049082	3.335285	F	F	F
13.435474	34.149082	3.335285	F	F	F
20.115475	6.849081	3.335285	F	F	F
20.115475	15.949081	3.335285	F	F	F
20.115475	25.049082	3.335285	F	F	F
20.115475	34.149082	3.335285	F	F	F
26.795475	6.849081	3.335285	F	F	F
26.795475	15.949081	3.335285	F	F	F
26.795475	25.049082	3.335285	F	F	F
26.795475	34.149082	3.335285	F	F	F
3.394787	6.896893	3.363891	F	F	F
3.394787	15.996893	3.363891	F	F	F
3.394787	25.096893	3.363891	F	F	F
3.394787	34.196896	3.363891	F	F	F
10.074786	6.896893	3.363891	F	F	F
10.074786	15.996893	3.363891	F	F	F
10.074786	25.096893	3.363891	F	F	F
10.074786	34.196896	3.363891	F	F	F
16.754786	6.896893	3.363891	F	F	F
16.754786	15.996893	3.363891	F	F	F
16.754786	25.096893	3.363891	F	F	F
16.754786	34.196896	3.363891	F	F	F
23.434786	6.896893	3.363891	F	F	F
23.434786	15.996893	3.363891	F	F	F
23.434786	25.096893	3.363891	F	F	F
23.434786	34.196896	3.363891	F	F	F
30.114786	6.896893	3.363891	F	F	F
30.114786	15.996893	3.363891	F	F	F
30.114786	25.096893	3.363891	F	F	F
30.114786	34.196896	3.363891	F	F	F
3.414843	2.303841	3.331368	F	F	F
3.414843	11.403842	3.331368	F	F	F
3.414843	20.503841	3.331368	F	F	F
3.414843	29.603842	3.331368	F	F	F
10.094843	2.303841	3.331368	F	F	F
10.094843	11.403842	3.331368	F	F	F
10.094843	20.503841	3.331368	F	F	F
10.094843	29.603842	3.331368	F	F	F
16.774843	2.303841	3.331368	F	F	F
16.774843	11.403842	3.331368	F	F	F
16.774843	20.503841	3.331368	F	F	F
16.774843	29.603842	3.331368	F	F	F
23.454842	2.303841	3.331368	F	F	F
23.454842	11.403842	3.331368	F	F	F
23.454842	20.503841	3.331368	F	F	F
23.454842	29.603842	3.331368	F	F	F
30.134842	2.303841	3.331368	F	F	F
30.134842	11.403842	3.331368	F	F	F
30.134842	20.503841	3.331368	F	F	F
30.134842	29.603842	3.331368	F	F	F
0.04411	2.348536	3.343184	F	F	F
0.04411	11.448536	3.343184	F	F	F
0.04411	20.548536	3.343184	F	F	F
0.04411	29.648537	3.343184	F	F	F
6.724109	2.348536	3.343184	F	F	F
6.724109	11.448536	3.343184	F	F	F
6.724109	20.548536	3.343184	F	F	F
6.724109	29.648537	3.343184	F	F	F
13.404109	2.348536	3.343184	F	F	F
13.404109	11.448536	3.343184	F	F	F
13.404109	20.548536	3.343184	F	F	F
13.404109	29.648537	3.343184	F	F	F
20.084108	2.348536	3.343184	F	F	F
20.084108	11.448536	3.343184	F	F	F
20.084108	20.548536	3.343184	F	F	F
20.084108	29.648537	3.343184	F	F	F
26.764109	2.348536	3.343184	F	F	F
26.764109	11.448536	3.343184	F	F	F
26.764109	20.548536	3.343184	F	F	F
26.764109	29.648537	3.343184	F	F	F
1.761453	0.019308	3.311635	F	F	F
1.761453	9.119308	3.311635	F	F	F
1.761453	18.219309	3.311635	F	F	F
1.761453	27.319309	3.311635	F	F	F
8.441453	0.019308	3.311635	F	F	F
8.441453	9.119308	3.311635	F	F	F
8.441453	18.219309	3.311635	F	F	F
8.441453	27.319309	3.311635	F	F	F
15.121452	0.019308	3.311635	F	F	F
15.121452	9.119308	3.311635	F	F	F
15.121452	18.219309	3.311635	F	F	F
15.121452	27.319309	3.311635	F	F	F
21.801453	0.019308	3.311635	F	F	F
21.801453	9.119308	3.311635	F	F	F
21.801453	18.219309	3.311635	F	F	F
21.801453	27.319309	3.311635	F	F	F
28.481453	0.019308	3.311635	F	F	F
28.481453	9.119308	3.311635	F	F	F
28.481453	18.219309	3.311635	F	F	F
28.481453	27.319309	3.311635	F	F	F
5.08793	0.085745	3.343389	F	F	F
5.08793	9.185745	3.343389	F	F	F
5.08793	18.285746	3.343389	F	F	F
5.08793	27.385746	3.343389	F	F	F
11.76793	0.085745	3.343389	F	F	F
11.76793	9.185745	3.343389	F	F	F
11.76793	18.285746	3.343389	F	F	F
11.76793	27.385746	3.343389	F	F	F
18.447929	0.085745	3.343389	F	F	F
18.447929	9.185745	3.343389	F	F	F
18.447929	18.285746	3.343389	F	F	F
18.447929	27.385746	3.343389	F	F	F
25.12793	0.085745	3.343389	F	F	F
25.12793	9.185745	3.343389	F	F	F
25.12793	18.285746	3.343389	F	F	F
25.12793	27.385746	3.343389	F	F	F
31.80793	0.085745	3.343389	F	F	F
31.80793	9.185745	3.343389	F	F	F
31.80793	18.285746	3.343389	F	F	F
31.80793	27.385746	3.343389	F	F	F
1.504175	6.854846	5.904893	T	T	T
1.504175	15.954846	5.904893	T	T	T
1.504175	25.054848	5.904893	T	T	T
1.504175	34.154846	5.904893	T	T	T
8.184175	6.854846	5.904893	T	T	T
8.184175	15.954846	5.904893	T	T	T
8.184175	25.054848	5.904893	T	T	T
8.184175	34.154846	5.904893	T	T	T
14.864175	6.854846	5.904893	T	T	T
14.864175	15.954846	5.904893	T	T	T
14.864175	25.054848	5.904893	T	T	T
14.864175	34.154846	5.904893	T	T	T
21.544174	6.854846	5.904893	T	T	T
21.544174	15.954846	5.904893	T	T	T
21.544174	25.054848	5.904893	T	T	T
21.544174	34.154846	5.904893	T	T	T
28.224174	6.854846	5.904893	T	T	T
28.224174	15.954846	5.904893	T	T	T
28.224174	25.054848	5.904893	T	T	T
28.224174	34.154846	5.904893	T	T	T
3.188048	0.03019	5.878666	T	T	T
3.188048	9.13019	5.878666	T	T	T
3.188048	18.23019	5.878666	T	T	T
3.188048	27.330191	5.878666	T	T	T
9.868048	0.03019	5.878666	T	T	T
9.868048	9.13019	5.878666	T	T	T
9.868048	18.23019	5.878666	T	T	T
9.868048	27.330191	5.878666	T	T	T
16.548048	0.03019	5.878666	T	T	T
16.548048	9.13019	5.878666	T	T	T
16.548048	18.23019	5.878666	T	T	T
16.548048	27.330191	5.878666	T	T	T
23.228046	0.03019	5.878666	T	T	T
23.228046	9.13019	5.878666	T	T	T
23.228046	18.23019	5.878666	T	T	T
23.228046	27.330191	5.878666	T	T	T
29.908047	0.03019	5.878666	T	T	T
29.908047	9.13019	5.878666	T	T	T
29.908047	18.23019	5.878666	T	T	T
29.908047	27.330191	5.878666	T	T	T
6.519765	4.598035	5.885689	T	T	T
6.519765	13.698035	5.885689	T	T	T
6.519765	22.798035	5.885689	T	T	T
6.519765	31.898037	5.885689	T	T	T
13.199765	4.598035	5.885689	T	T	T
13.199765	13.698035	5.885689	T	T	T
13.199765	22.798035	5.885689	T	T	T
13.199765	31.898037	5.885689	T	T	T
19.879765	4.598035	5.885689	T	T	T
19.879765	13.698035	5.885689	T	T	T
19.879765	22.798035	5.885689	T	T	T
19.879765	31.898037	5.885689	T	T	T
26.559765	4.598035	5.885689	T	T	T
26.559765	13.698035	5.885689	T	T	T
26.559765	22.798035	5.885689	T	T	T
26.559765	31.898037	5.885689	T	T	T
33.239765	4.598035	5.885689	T	T	T
33.239765	13.698035	5.885689	T	T	T
33.239765	22.798035	5.885689	T	T	T
33.239765	31.898037	5.885689	T	T	T
4.904503	6.759631	5.750966	T	T	T
4.904503	15.859632	5.750966	T	T	T
4.904503	24.959633	5.750966	T	T	T
4.904503	34.059631	5.750966	T	T	T
11.584503	6.759631	5.750966	T	T	T
11.584503	15.859632	5.750966	T	T	T
11.584503	24.959633	5.750966	T	T	T
11.584503	34.059631	5.750966	T	T	T
18.264503	6.759631	5.750966	T	T	T
18.264503	15.859632	5.750966	T	T	T
18.264503	24.959633	5.750966	T	T	T
18.264503	34.059631	5.750966	T	T	T
24.944502	6.759631	5.750966	T	T	T
24.944502	15.859632	5.750966	T	T	T
24.944502	24.959633	5.750966	T	T	T
24.944502	34.059631	5.750966	T	T	T
31.624502	6.759631	5.750966	T	T	T
31.624502	15.859632	5.750966	T	T	T
31.624502	24.959633	5.750966	T	T	T
31.624502	34.059631	5.750966	T	T	T
4.858992	2.32323	5.894721	T	T	T
4.858992	11.423231	5.894721	T	T	T
4.858992	20.523232	5.894721	T	T	T
4.858992	29.623232	5.894721	T	T	T
11.538992	2.32323	5.894721	T	T	T
11.538992	11.423231	5.894721	T	T	T
11.538992	20.523232	5.894721	T	T	T
11.538992	29.623232	5.894721	T	T	T
18.21899	2.32323	5.894721	T	T	T
18.21899	11.423231	5.894721	T	T	T
18.21899	20.523232	5.894721	T	T	T
18.21899	29.623232	5.894721	T	T	T
24.898991	2.32323	5.894721	T	T	T
24.898991	11.423231	5.894721	T	T	T
24.898991	20.523232	5.894721	T	T	T
24.898991	29.623232	5.894721	T	T	T
31.578991	2.32323	5.894721	T	T	T
31.578991	11.423231	5.894721	T	T	T
31.578991	20.523232	5.894721	T	T	T
31.578991	29.623232	5.894721	T	T	T
6.578257	9.000504	5.742006	T	T	T
6.578257	18.100506	5.742006	T	T	T
6.578257	27.200504	5.742006	T	T	T
6.578257	36.300507	5.742006	T	T	T
13.258257	9.000504	5.742006	T	T	T
13.258257	18.100506	5.742006	T	T	T
13.258257	27.200504	5.742006	T	T	T
13.258257	36.300507	5.742006	T	T	T
19.938257	9.000504	5.742006	T	T	T
19.938257	18.100506	5.742006	T	T	T
19.938257	27.200504	5.742006	T	T	T
19.938257	36.300507	5.742006	T	T	T
26.618256	9.000504	5.742006	T	T	T
26.618256	18.100506	5.742006	T	T	T
26.618256	27.200504	5.742006	T	T	T
26.618256	36.300507	5.742006	T	T	T
33.298256	9.000504	5.742006	T	T	T
33.298256	18.100506	5.742006	T	T	T
33.298256	27.200504	5.742006	T	T	T
33.298256	36.300507	5.742006	T	T	T
1.569085	2.211747	5.729369	T	T	T
1.569085	11.311748	5.729369	T	T	T
1.569085	20.411747	5.729369	T	T	T
1.569085	29.511747	5.729369	T	T	T
8.249085	2.211747	5.729369	T	T	T
8.249085	11.311748	5.729369	T	T	T
8.249085	20.411747	5.729369	T	T	T
8.249085	29.511747	5.729369	T	T	T
14.929085	2.211747	5.729369	T	T	T
14.929085	11.311748	5.729369	T	T	T
14.929085	20.411747	5.729369	T	T	T
14.929085	29.511747	5.729369	T	T	T
21.609085	2.211747	5.729369	T	T	T
21.609085	11.311748	5.729369	T	T	T
21.609085	20.411747	5.729369	T	T	T
21.609085	29.511747	5.729369	T	T	T
28.289085	2.211747	5.729369	T	T	T
28.289085	11.311748	5.729369	T	T	T
28.289085	20.411747	5.729369	T	T	T
28.289085	29.511747	5.729369	T	T	T
3.233113	4.472251	5.717448	T	T	T
3.233113	13.572252	5.717448	T	T	T
3.233113	22.672253	5.717448	T	T	T
3.233113	31.772253	5.717448	T	T	T
9.913113	4.472251	5.717448	T	T	T
9.913113	13.572252	5.717448	T	T	T
9.913113	22.672253	5.717448	T	T	T
9.913113	31.772253	5.717448	T	T	T
16.593113	4.472251	5.717448	T	T	T
16.593113	13.572252	5.717448	T	T	T
16.593113	22.672253	5.717448	T	T	T
16.593113	31.772253	5.717448	T	T	T
23.273111	4.472251	5.717448	T	T	T
23.273111	13.572252	5.717448	T	T	T
23.273111	22.672253	5.717448	T	T	T
23.273111	31.772253	5.717448	T	T	T
29.953112	4.472251	5.717448	T	T	T
29.953112	13.572252	5.717448	T	T	T
29.953112	22.672253	5.717448	T	T	T
29.953112	31.772253	5.717448	T	T	T
1.715566	7.327129	2.799685	F	F	F
1.715566	16.42713	2.799685	F	F	F
1.715566	25.52713	2.799685	F	F	F
1.715566	34.627129	2.799685	F	F	F
8.395566	7.327129	2.799685	F	F	F
8.395566	16.42713	2.799685	F	F	F
8.395566	25.52713	2.799685	F	F	F
8.395566	34.627129	2.799685	F	F	F
15.075565	7.327129	2.799685	F	F	F
15.075565	16.42713	2.799685	F	F	F
15.075565	25.52713	2.799685	F	F	F
15.075565	34.627129	2.799685	F	F	F
21.755566	7.327129	2.799685	F	F	F
21.755566	16.42713	2.799685	F	F	F
21.755566	25.52713	2.799685	F	F	F
21.755566	34.627129	2.799685	F	F	F
28.435566	7.327129	2.799685	F	F	F
28.435566	16.42713	2.799685	F	F	F
28.435566	25.52713	2.799685	F	F	F
28.435566	34.627129	2.799685	F	F	F
0.085423	5.147228	2.788191	F	F	F
0.085423	14.247229	2.788191	F	F	F
0.085423	23.347229	2.788191	F	F	F
0.085423	32.447227	2.788191	F	F	F
6.765423	5.147228	2.788191	F	F	F
6.765423	14.247229	2.788191	F	F	F
6.765423	23.347229	2.788191	F	F	F
6.765423	32.447227	2.788191	F	F	F
13.445423	5.147228	2.788191	F	F	F
13.445423	14.247229	2.788191	F	F	F
13.445423	23.347229	2.788191	F	F	F
13.445423	32.447227	2.788191	F	F	F
20.125422	5.147228	2.788191	F	F	F
20.125422	14.247229	2.788191	F	F	F
20.125422	23.347229	2.788191	F	F	F
20.125422	32.447227	2.788191	F	F	F
26.805422	5.147228	2.788191	F	F	F
26.805422	14.247229	2.788191	F	F	F
26.805422	23.347229	2.788191	F	F	F
26.805422	32.447227	2.788191	F	F	F
5.046933	2.770356	2.785316	F	F	F
5.046933	11.870356	2.785316	F	F	F
5.046933	20.970356	2.785316	F	F	F
5.046933	30.070356	2.785316	F	F	F
11.726933	2.770356	2.785316	F	F	F
11.726933	11.870356	2.785316	F	F	F
11.726933	20.970356	2.785316	F	F	F
11.726933	30.070356	2.785316	F	F	F
18.406933	2.770356	2.785316	F	F	F
18.406933	11.870356	2.785316	F	F	F
18.406933	20.970356	2.785316	F	F	F
18.406933	30.070356	2.785316	F	F	F
25.086933	2.770356	2.785316	F	F	F
25.086933	11.870356	2.785316	F	F	F
25.086933	20.970356	2.785316	F	F	F
25.086933	30.070356	2.785316	F	F	F
31.766933	2.770356	2.785316	F	F	F
31.766933	11.870356	2.785316	F	F	F
31.766933	20.970356	2.785316	F	F	F
31.766933	30.070356	2.785316	F	F	F
3.43505	0.597231	2.814832	F	F	F
3.43505	9.697231	2.814832	F	F	F
3.43505	18.797232	2.814832	F	F	F
3.43505	27.897232	2.814832	F	F	F
10.11505	0.597231	2.814832	F	F	F
10.11505	9.697231	2.814832	F	F	F
10.11505	18.797232	2.814832	F	F	F
10.11505	27.897232	2.814832	F	F	F
16.79505	0.597231	2.814832	F	F	F
16.79505	9.697231	2.814832	F	F	F
16.79505	18.797232	2.814832	F	F	F
16.79505	27.897232	2.814832	F	F	F
23.47505	0.597231	2.814832	F	F	F
23.47505	9.697231	2.814832	F	F	F
23.47505	18.797232	2.814832	F	F	F
23.47505	27.897232	2.814832	F	F	F
30.15505	0.597231	2.814832	F	F	F
30.15505	9.697231	2.814832	F	F	F
30.15505	18.797232	2.814832	F	F	F
30.15505	27.897232	2.814832	F	F	F
5.092394	6.369123	3.90663	F	F	F
5.092394	15.469124	3.90663	F	F	F
5.092394	24.569124	3.90663	F	F	F
5.092394	33.669125	3.90663	F	F	F
11.772394	6.369123	3.90663	F	F	F
11.772394	15.469124	3.90663	F	F	F
11.772394	24.569124	3.90663	F	F	F
11.772394	33.669125	3.90663	F	F	F
18.452393	6.369123	3.90663	F	F	F
18.452393	15.469124	3.90663	F	F	F
18.452393	24.569124	3.90663	F	F	F
18.452393	33.669125	3.90663	F	F	F
25.132393	6.369123	3.90663	F	F	F
25.132393	15.469124	3.90663	F	F	F
25.132393	24.569124	3.90663	F	F	F
25.132393	33.669125	3.90663	F	F	F
31.812393	6.369123	3.90663	F	F	F
31.812393	15.469124	3.90663	F	F	F
31.812393	24.569124	3.90663	F	F	F
31.812393	33.669125	3.90663	F	F	F
3.402734	4.048975	3.889201	F	F	F
3.402734	13.148975	3.889201	F	F	F
3.402734	22.248976	3.889201	F	F	F
3.402734	31.348976	3.889201	F	F	F
10.082733	4.048975	3.889201	F	F	F
10.082733	13.148975	3.889201	F	F	F
10.082733	22.248976	3.889201	F	F	F
10.082733	31.348976	3.889201	F	F	F
16.762733	4.048975	3.889201	F	F	F
16.762733	13.148975	3.889201	F	F	F
16.762733	22.248976	3.889201	F	F	F
16.762733	31.348976	3.889201	F	F	F
23.442734	4.048975	3.889201	F	F	F
23.442734	13.148975	3.889201	F	F	F
23.442734	22.248976	3.889201	F	F	F
23.442734	31.348976	3.889201	F	F	F
30.122734	4.048975	3.889201	F	F	F
30.122734	13.148975	3.889201	F	F	F
30.122734	22.248976	3.889201	F	F	F
30.122734	31.348976	3.889201	F	F	F
0.069662	8.591599	3.908113	F	F	F
0.069662	17.691599	3.908113	F	F	F
0.069662	26.791599	3.908113	F	F	F
0.069662	35.891602	3.908113	F	F	F
6.749661	8.591599	3.908113	F	F	F
6.749661	17.691599	3.908113	F	F	F
6.749661	26.791599	3.908113	F	F	F
6.749661	35.891602	3.908113	F	F	F
13.429662	8.591599	3.908113	F	F	F
13.429662	17.691599	3.908113	F	F	F
13.429662	26.791599	3.908113	F	F	F
13.429662	35.891602	3.908113	F	F	F
20.109661	8.591599	3.908113	F	F	F
20.109661	17.691599	3.908113	F	F	F
20.109661	26.791599	3.908113	F	F	F
20.109661	35.891602	3.908113	F	F	F
26.789661	8.591599	3.908113	F	F	F
26.789661	17.691599	3.908113	F	F	F
26.789661	26.791599	3.908113	F	F	F
26.789661	35.891602	3.908113	F	F	F
1.747411	1.855024	3.884461	F	F	F
1.747411	10.955025	3.884461	F	F	F
1.747411	20.055025	3.884461	F	F	F
1.747411	29.155025	3.884461	F	F	F
8.42741	1.855024	3.884461	F	F	F
8.42741	10.955025	3.884461	F	F	F
8.42741	20.055025	3.884461	F	F	F
8.42741	29.155025	3.884461	F	F	F
15.10741	1.855024	3.884461	F	F	F
15.10741	10.955025	3.884461	F	F	F
15.10741	20.055025	3.884461	F	F	F
15.10741	29.155025	3.884461	F	F	F
21.787409	1.855024	3.884461	F	F	F
21.787409	10.955025	3.884461	F	F	F
21.787409	20.055025	3.884461	F	F	F
21.787409	29.155025	3.884461	F	F	F
28.467409	1.855024	3.884461	F	F	F
28.467409	10.955025	3.884461	F	F	F
28.467409	20.055025	3.884461	F	F	F
28.467409	29.155025	3.884461	F	F	F
4.920349	0.512989	5.273028	T	T	T
4.920349	9.612989	5.273028	T	T	T
4.920349	18.71299	5.273028	T	T	T
4.920349	27.81299	5.273028	T	T	T
11.600349	0.512989	5.273028	T	T	T
11.600349	9.612989	5.273028	T	T	T
11.600349	18.71299	5.273028	T	T	T
11.600349	27.81299	5.273028	T	T	T
18.28035	0.512989	5.273028	T	T	T
18.28035	9.612989	5.273028	T	T	T
18.28035	18.71299	5.273028	T	T	T
18.28035	27.81299	5.273028	T	T	T
24.960348	0.512989	5.273028	T	T	T
24.960348	9.612989	5.273028	T	T	T
24.960348	18.71299	5.273028	T	T	T
24.960348	27.81299	5.273028	T	T	T
31.640348	0.512989	5.273028	T	T	T
31.640348	9.612989	5.273028	T	T	T
31.640348	18.71299	5.273028	T	T	T
31.640348	27.81299	5.273028	T	T	T
3.227215	7.302193	5.266933	T	T	T
3.227215	16.402193	5.266933	T	T	T
3.227215	25.502193	5.266933	T	T	T
3.227215	34.602196	5.266933	T	T	T
9.907215	7.302193	5.266933	T	T	T
9.907215	16.402193	5.266933	T	T	T
9.907215	25.502193	5.266933	T	T	T
9.907215	34.602196	5.266933	T	T	T
16.587215	7.302193	5.266933	T	T	T
16.587215	16.402193	5.266933	T	T	T
16.587215	25.502193	5.266933	T	T	T
16.587215	34.602196	5.266933	T	T	T
23.267214	7.302193	5.266933	T	T	T
23.267214	16.402193	5.266933	T	T	T
23.267214	25.502193	5.266933	T	T	T
23.267214	34.602196	5.266933	T	T	T
29.947214	7.302193	5.266933	T	T	T
29.947214	16.402193	5.266933	T	T	T
29.947214	25.502193	5.266933	T	T	T
29.947214	34.602196	5.266933	T	T	T
1.559591	5.052636	5.258084	T	T	T
1.559591	14.152637	5.258084	T	T	T
1.559591	23.252636	5.258084	T	T	T
1.559591	32.352638	5.258084	T	T	T
8.239592	5.052636	5.258084	T	T	T
8.239592	14.152637	5.258084	T	T	T
8.239592	23.252636	5.258084	T	T	T
8.239592	32.352638	5.258084	T	T	T
14.919591	5.052636	5.258084	T	T	T
14.919591	14.152637	5.258084	T	T	T
14.919591	23.252636	5.258084	T	T	T
14.919591	32.352638	5.258084	T	T	T
21.59959	5.052636	5.258084	T	T	T
21.59959	14.152637	5.258084	T	T	T
21.59959	23.252636	5.258084	T	T	T
21.59959	32.352638	5.258084	T	T	T
28.279591	5.052636	5.258084	T	T	T
28.279591	14.152637	5.258084	T	T	T
28.279591	23.252636	5.258084	T	T	T
28.279591	32.352638	5.258084	T	T	T
6.565666	2.777528	5.233202	T	T	T
6.565666	11.877529	5.233202	T	T	T
6.565666	20.97753	5.233202	T	T	T
6.565666	30.07753	5.233202	T	T	T
13.245667	2.777528	5.233202	T	T	T
13.245667	11.877529	5.233202	T	T	T
13.245667	20.97753	5.233202	T	T	T
13.245667	30.07753	5.233202	T	T	T
19.925667	2.777528	5.233202	T	T	T
19.925667	11.877529	5.233202	T	T	T
19.925667	20.97753	5.233202	T	T	T
19.925667	30.07753	5.233202	T	T	T
26.605665	2.777528	5.233202	T	T	T
26.605665	11.877529	5.233202	T	T	T
26.605665	20.97753	5.233202	T	T	T
26.605665	30.07753	5.233202	T	T	T
33.285667	2.777528	5.233202	T	T	T
33.285667	11.877529	5.233202	T	T	T
33.285667	20.97753	5.233202	T	T	T
33.285667	30.07753	5.233202	T	T	T
1.480654	8.655248	6.444896	T	T	T
1.480654	17.755249	6.444896	T	T	T
1.480654	26.855247	6.444896	T	T	T
1.480654	35.95525	6.444896	T	T	T
8.160653	8.655248	6.444896	T	T	T
8.160653	17.755249	6.444896	T	T	T
8.160653	26.855247	6.444896	T	T	T
8.160653	35.95525	6.444896	T	T	T
14.840653	8.655248	6.444896	T	T	T
14.840653	17.755249	6.444896	T	T	T
14.840653	26.855247	6.444896	T	T	T
14.840653	35.95525	6.444896	T	T	T
21.520653	8.655248	6.444896	T	T	T
21.520653	17.755249	6.444896	T	T	T
21.520653	26.855247	6.444896	T	T	T
21.520653	35.95525	6.444896	T	T	T
28.200653	8.655248	6.444896	T	T	T
28.200653	17.755249	6.444896	T	T	T
28.200653	26.855247	6.444896	T	T	T
28.200653	35.95525	6.444896	T	T	T
6.477345	6.389318	6.463571	T	T	T
6.477345	15.489319	6.463571	T	T	T
6.477345	24.589319	6.463571	T	T	T
6.477345	33.68932	6.463571	T	T	T
13.157345	6.389318	6.463571	T	T	T
13.157345	15.489319	6.463571	T	T	T
13.157345	24.589319	6.463571	T	T	T
13.157345	33.68932	6.463571	T	T	T
19.837345	6.389318	6.463571	T	T	T
19.837345	15.489319	6.463571	T	T	T
19.837345	24.589319	6.463571	T	T	T
19.837345	33.68932	6.463571	T	T	T
26.517345	6.389318	6.463571	T	T	T
26.517345	15.489319	6.463571	T	T	T
26.517345	24.589319	6.463571	T	T	T
26.517345	33.68932	6.463571	T	T	T
33.197346	6.389318	6.463571	T	T	T
33.197346	15.489319	6.463571	T	T	T
33.197346	24.589319	6.463571	T	T	T
33.197346	33.68932	6.463571	T	T	T
3.139889	1.838834	6.421994	T	T	T
3.139889	10.938834	6.421994	T	T	T
3.139889	20.038836	6.421994	T	T	T
3.139889	29.138836	6.421994	T	T	T
9.819889	1.838834	6.421994	T	T	T
9.819889	10.938834	6.421994	T	T	T
9.819889	20.038836	6.421994	T	T	T
9.819889	29.138836	6.421994	T	T	T
16.499889	1.838834	6.421994	T	T	T
16.499889	10.938834	6.421994	T	T	T
16.499889	20.038836	6.421994	T	T	T
16.499889	29.138836	6.421994	T	T	T
23.179888	1.838834	6.421994	T	T	T
23.179888	10.938834	6.421994	T	T	T
23.179888	20.038836	6.421994	T	T	T
23.179888	29.138836	6.421994	T	T	T
29.859888	1.838834	6.421994	T	T	T
29.859888	10.938834	6.421994	T	T	T
29.859888	20.038836	6.421994	T	T	T
29.859888	29.138836	6.421994	T	T	T
4.806592	4.120347	6.437369	T	T	T
4.806592	13.220347	6.437369	T	T	T
4.806592	22.320347	6.437369	T	T	T
4.806592	31.420349	6.437369	T	T	T
11.486591	4.120347	6.437369	T	T	T
11.486591	13.220347	6.437369	T	T	T
11.486591	22.320347	6.437369	T	T	T
11.486591	31.420349	6.437369	T	T	T
18.166592	4.120347	6.437369	T	T	T
18.166592	13.220347	6.437369	T	T	T
18.166592	22.320347	6.437369	T	T	T
18.166592	31.420349	6.437369	T	T	T
24.846592	4.120347	6.437369	T	T	T
24.846592	13.220347	6.437369	T	T	T
24.846592	22.320347	6.437369	T	T	T
24.846592	31.420349	6.437369	T	T	T
31.526592	4.120347	6.437369	T	T	T
31.526592	13.220347	6.437369	T	T	T
31.526592	22.320347	6.437369	T	T	T
31.526592	31.420349	6.437369	T	T	T
2.024953	4.161706	1.893229	F	F	F
2.024953	13.261707	1.893229	F	F	F
2.024953	22.361708	1.893229	F	F	F
2.024953	31.461708	1.893229	F	F	F
8.704952	4.161706	1.893229	F	F	F
8.704952	13.261707	1.893229	F	F	F
8.704952	22.361708	1.893229	F	F	F
8.704952	31.461708	1.893229	F	F	F
15.384953	4.161706	1.893229	F	F	F
15.384953	13.261707	1.893229	F	F	F
15.384953	22.361708	1.893229	F	F	F
15.384953	31.461708	1.893229	F	F	F
22.064951	4.161706	1.893229	F	F	F
22.064951	13.261707	1.893229	F	F	F
22.064951	22.361708	1.893229	F	F	F
22.064951	31.461708	1.893229	F	F	F
28.744951	4.161706	1.893229	F	F	F
28.744951	13.261707	1.893229	F	F	F
28.744951	22.361708	1.893229	F	F	F
28.744951	31.461708	1.893229	F	F	F
3.690523	6.482593	1.920798	F	F	F
3.690523	15.582593	1.920798	F	F	F
3.690523	24.682594	1.920798	F	F	F
3.690523	33.782593	1.920798	F	F	F
10.370522	6.482593	1.920798	F	F	F
10.370522	15.582593	1.920798	F	F	F
10.370522	24.682594	1.920798	F	F	F
10.370522	33.782593	1.920798	F	F	F
17.050522	6.482593	1.920798	F	F	F
17.050522	15.582593	1.920798	F	F	F
17.050522	24.682594	1.920798	F	F	F
17.050522	33.782593	1.920798	F	F	F
23.730522	6.482593	1.920798	F	F	F
23.730522	15.582593	1.920798	F	F	F
23.730522	24.682594	1.920798	F	F	F
23.730522	33.782593	1.920798	F	F	F
30.410522	6.482593	1.920798	F	F	F
30.410522	15.582593	1.920798	F	F	F
30.410522	24.682594	1.920798	F	F	F
30.410522	33.782593	1.920798	F	F	F
0.346072	1.921555	1.910201	F	F	F
0.346072	11.021556	1.910201	F	F	F
0.346072	20.121555	1.910201	F	F	F
0.346072	29.221556	1.910201	F	F	F
7.026072	1.921555	1.910201	F	F	F
7.026072	11.021556	1.910201	F	F	F
7.026072	20.121555	1.910201	F	F	F
7.026072	29.221556	1.910201	F	F	F
13.706071	1.921555	1.910201	F	F	F
13.706071	11.021556	1.910201	F	F	F
13.706071	20.121555	1.910201	F	F	F
13.706071	29.221556	1.910201	F	F	F
20.38607	1.921555	1.910201	F	F	F
20.38607	11.021556	1.910201	F	F	F
20.38607	20.121555	1.910201	F	F	F
20.38607	29.221556	1.910201	F	F	F
27.066071	1.921555	1.910201	F	F	F
27.066071	11.021556	1.910201	F	F	F
27.066071	20.121555	1.910201	F	F	F
27.066071	29.221556	1.910201	F	F	F
5.375916	8.722162	1.905694	F	F	F
5.375916	17.822163	1.905694	F	F	F
5.375916	26.922163	1.905694	F	F	F
5.375916	36.022163	1.905694	F	F	F
12.055916	8.722162	1.905694	F	F	F
12.055916	17.822163	1.905694	F	F	F
12.055916	26.922163	1.905694	F	F	F
12.055916	36.022163	1.905694	F	F	F
18.735916	8.722162	1.905694	F	F	F
18.735916	17.822163	1.905694	F	F	F
18.735916	26.922163	1.905694	F	F	F
18.735916	36.022163	1.905694	F	F	F
25.415915	8.722162	1.905694	F	F	F
25.415915	17.822163	1.905694	F	F	F
25.415915	26.922163	1.905694	F	F	F
25.415915	36.022163	1.905694	F	F	F
32.095917	8.722162	1.905694	F	F	F
32.095917	17.822163	1.905694	F	F	F
32.095917	26.922163	1.905694	F	F	F
32.095917	36.022163	1.905694	F	F	F
13.89735	16.528692	8.080983	T	T	T
13.897277	15.514263	10.472748	T	T	T
11.757855	16.75551	9.537318	T	T	T
16.037237	16.756062	9.537274	T	T	T
12.575218	18.76461	8.023559	T	T	T
15.219764	18.764664	8.023644	T	T	T
13.897427	17.993368	10.024441	T	T	T
11.216285	21.079666	7.98771	T	T	T
13.897469	14.489	12.953797	T	T	T
18.236008	17.006731	11.056968	T	T	T
16.57889	21.079826	7.987794	T	T	T
9.55883	17.006285	11.056682	T	T	T
16.071701	15.729413	11.992619	T	T	T
11.722967	15.729167	11.992514	T	T	T
17.415682	19.032465	9.503712	T	T	T
10.379494	19.03224	9.503509	T	T	T
13.897453	21.073828	7.965442	T	T	T
11.723568	18.245905	11.533083	T	T	T
15.241021	20.286922	9.995389	T	T	T
12.554236	20.286842	9.995325	T	T	T
13.897284	16.984694	12.483511	T	T	T
16.071255	18.246237	11.533119	T	T	T
13.897417	13.565608	15.474695	T	T	T
7.414761	17.327311	12.639886	T	T	T
20.380486	17.327946	12.640069	T	T	T
9.891069	23.413395	8.054184	T	T	T
17.904854	23.413334	8.054272	T	T	T
18.761948	21.364029	9.518899	T	T	T
12.552031	23.405111	7.98071	T	T	T
18.249731	16.016109	13.54868	T	T	T
8.201653	19.318693	11.059381	T	T	T
11.723107	14.751977	14.500733	T	T	T
15.243624	23.405157	7.980796	T	T	T
9.033546	21.363703	9.518895	T	T	T
19.593761	19.319128	11.059673	T	T	T
9.545258	16.015553	13.54848	T	T	T
16.071873	14.752255	14.500687	T	T	T
13.897532	19.595005	12.149689	T	T	T
17.441444	20.558887	11.515146	T	T	T
13.897763	22.614811	9.965865	T	T	T
10.353833	20.558523	11.515132	T	T	T
18.246222	18.532497	13.086993	T	T	T
13.897421	16.008751	14.988358	T	T	T
9.548834	18.532034	13.086807	T	T	T
16.585413	22.615177	10.010681	T	T	T
16.087639	17.231617	14.022299	T	T	T
11.707313	17.231346	14.022224	T	T	T
11.210169	22.614998	10.010569	T	T	T
6.877887	21.650578	11.087353	T	T	T
7.414769	16.367229	15.104627	T	T	T
20.917761	21.650938	11.087456	T	T	T
9.558974	15.05975	16.053609	T	T	T
18.236217	15.060186	16.053528	T	T	T
7.751906	23.694918	9.582608	T	T	T
13.897812	25.723766	8.018193	T	T	T
16.582092	25.704412	8.069386	T	T	T
16.037603	13.847387	17.00367	T	T	T
21.703053	19.617977	12.655338	T	T	T
19.178831	25.676397	8.140824	T	T	T
8.616742	25.6761	8.140881	T	T	T
22.442904	17.653461	14.186416	T	T	T
5.352339	17.653032	14.186283	T	T	T
13.897686	12.694751	17.922614	T	T	T
11.757965	13.847075	17.003492	T	T	T
11.213761	25.704218	8.069238	T	T	T
6.092602	19.617432	12.655141	T	T	T
20.380594	16.367838	15.104581	T	T	T
20.043655	23.694878	9.582389	T	T	T
11.760468	19.831514	13.617481	T	T	T
15.21849	21.83823	12.105723	T	T	T
12.576804	21.838083	12.105628	T	T	T
13.897537	18.59156	14.551899	T	T	T
16.034819	19.831753	13.617543	T	T	T
9.896093	24.924646	10.069884	T	T	T
11.723816	16.294788	16.541414	T	T	T
20.372972	18.845869	14.65074	T	T	T
13.897671	15.088083	17.481731	T	T	T
7.422473	18.845236	14.650554	T	T	T
18.246281	17.557121	15.590551	T	T	T
17.899748	24.924843	10.069899	T	T	T
9.54892	17.556675	15.590515	T	T	T
18.759285	22.901304	11.563714	T	T	T
9.036389	22.900953	11.563728	T	T	T
15.241931	24.941916	10.025994	T	T	T
12.553834	24.941908	10.026	T	T	T
16.071333	16.295019	16.541447	T	T	T
19.589895	20.859379	13.102283	T	T	T
8.205631	20.858974	13.102222	T	T	T
13.897612	21.089718	14.133169	T	T	T
6.092734	18.064289	16.642712	T	T	T
22.520142	20.073811	15.128763	T	T	T
15.220323	14.303053	19.476802	T	T	T
7.752045	26.159851	10.542773	T	T	T
17.904396	27.401491	9.60745	T	T	T
8.201736	16.764832	17.615831	T	T	T
5.275437	20.073214	15.12876	T	T	T
12.575236	14.303024	19.476907	T	T	T
20.043652	26.160227	10.542649	T	T	T
9.891592	27.401186	9.607317	T	T	T
12.55212	27.457088	9.559045	T	T	T
20.936451	24.154535	12.047907	T	T	T
18.109049	20.149349	15.15857	T	T	T
11.295112	24.102903	12.179353	T	T	T
16.500572	24.103065	12.179395	T	T	T
10.439809	22.119267	13.632533	T	T	T
9.686445	20.149002	15.158498	T	T	T
13.89767	17.705637	16.99979	T	T	T
19.593964	16.765291	17.615772	T	T	T
10.379644	15.501211	18.56803	T	T	T
6.859377	24.154119	12.047848	T	T	T
6.027483	22.109455	13.588324	T	T	T
15.243853	27.457151	9.559119	T	T	T
17.415956	15.501459	18.567929	T	T	T
21.768126	22.10976	13.588424	T	T	T
17.355787	22.119545	13.632613	T	T	T
13.897773	24.125959	12.120717	T	T	T
16.034895	18.872948	16.078939	T	T	T
21.703009	18.064806	16.642781	T	T	T
11.760545	18.872704	16.078834	T	T	T
19.589922	19.281364	17.153205	T	T	T
10.354014	17.986019	18.118853	T	T	T
17.441584	17.986242	18.118973	T	T	T
12.554444	16.757816	19.054467	T	T	T
20.420094	21.322273	15.61523	T	T	T
16.585577	26.666027	11.588712	T	T	T
9.036572	25.404623	12.538965	T	T	T
19.631636	23.369614	14.062475	T	T	T
15.996246	21.365957	15.632563	T	T	T
15.194809	23.336224	14.147983	T	T	T
12.600768	23.336102	14.147956	T	T	T
13.897677	20.148272	16.549994	T	T	T
13.897855	26.696611	11.555776	T	T	T
8.163914	23.369156	14.062529	T	T	T
11.799194	21.365789	15.632526	T	T	T
15.241232	16.757904	19.054442	T	T	T
11.210434	26.66584	11.588566	T	T	T
18.759293	25.404966	12.538992	T	T	T
8.205807	19.280956	17.153022	T	T	T
7.375381	21.321852	15.615093	T	T	T
9.033677	17.228924	20.133677	T	T	T
18.762228	17.229019	20.133642	T	T	T
21.768049	24.618204	14.565746	T	T	T