Ba2
1.0
5.030300 0.000000 0.000000
0.000000 5.030300 0.000000
0.000000 0.000000 5.030300
Ba
2
direct
0.000000 0.000000 0.000000 Ba
0.500000 0.500000 0.500000 Ba
