Pd4
1.000000
3.953336000000000 0.000000000000000 0.000000000000000
0.000000000000000 3.953336000000000 0.000000000000000
0.000000000000000 0.000000000000000 3.953336000000000
Pd
4 
Cartesian
0.000000000000000 0.000000000000000 0.000000000000000 
0.000000000000000 1.976668000000000 1.976668000000000 
1.976668000000000 0.000000000000000 1.976668000000000 
1.976668000000000 1.976668000000000 0.000000000000000 
