Ga2 N2
1.0
3.216290 0.000000 0.000000
-1.608145 2.785389 0.000000
0.000000 0.000000 5.239962
Ga N
2 2
direct
0.333333 0.666667 0.500880 Ga
0.666667 0.333333 0.000880 Ga
0.333333 0.666667 0.124120 N
0.666667 0.333333 0.624120 N
