Cr2
1.0
2.849623 0.000000 0.000000
0.000000 2.849623 0.000000
0.000000 0.000000 2.849623
Cr
2
direct
0.000000 0.000000 0.000000 Cr
0.500000 0.500000 0.500000 Cr
