Na4 H4 Pd2
1.0
3.589549 0.000000 0.000000
0.000000 3.589549 0.000000
0.000000 0.000000 11.434385
Na H Pd
4   4		2	
direct
0.500000 0.500000 0.860164 Na
0.500000 0.500000 0.139836 Na
0.000000 0.000000 0.360164 Na
0.000000 0.000000 0.639836 Na
0.000000 0.000000 0.148692 H
0.000000 0.000000 0.851308 H
0.500000 0.500000 0.648692 H
0.500000 0.500000 0.351308 H
0.000000 0.000000 0.000000 Pd
0.500000 0.500000 0.500000 Pd
