Pt4
1.0
3.976771 0.000000 0.000000
0.000000 3.976771 0.000000
0.000000 0.000000 3.976771
Pt
4
direct
0.000000 0.000000 0.000000 Pt
0.500000 0.500000 0.000000 Pt
0.500000 0.000000 0.500000 Pt
0.000000 0.500000 0.500000 Pt
