Na4 Cl4
1.0
113.833880 0.000000 0.000000
0.000000 113.833880 0.000000
0.000000 0.000000 113.833880
Na 		  	Cl 
19 44 
cartesian
0.499271 0.474308 0.474308 
0.474308 0.499271 0.474308 
0.499271 0.499271 0.449344 
0.499271 0.524235 0.474308 
0.524235 0.499271 0.474308 
0.474308 0.474308 0.499271 
0.499271 0.449344 0.499271 
0.499271 0.474308 0.524235 
0.524235 0.474308 0.499271 
0.449344 0.499271 0.499271 
0.474308 0.499271 0.524235 
0.474308 0.524235 0.499271 
0.499271 0.499271 0.499271 
0.499271 0.524235 0.524235 
0.524235 0.499271 0.524235 
0.524235 0.524235 0.499271 
0.549199 0.499271 0.499271 
0.499271 0.549199 0.499271 
0.499271 0.499271 0.549199 
0.499271 0.499271 0.424381 
0.474308 0.474308 0.474308 
0.499271 0.449344 0.474308 
0.499271 0.474308 0.449344 
0.524235 0.474308 0.474308 
0.449344 0.499271 0.474308 
0.474308 0.499271 0.449344 
0.474308 0.524235 0.474308 
0.499271 0.499271 0.474308 
0.499271 0.524235 0.449344 
0.524235 0.499271 0.449344 
0.524235 0.524235 0.474308 
0.549199 0.499271 0.474308 
0.499271 0.549199 0.474308 
0.499271 0.424381 0.499271 
0.449344 0.474308 0.499271 
0.474308 0.449344 0.499271 
0.474308 0.474308 0.524235 
0.499271 0.449344 0.524235 
0.499271 0.474308 0.499271 
0.524235 0.449344 0.499271 
0.524235 0.474308 0.524235 
0.549199 0.474308 0.499271 
0.424381 0.499271 0.499271 
0.449344 0.499271 0.524235 
0.449344 0.524235 0.499271 
0.474308 0.499271 0.499271 
0.474308 0.524235 0.524235 
0.499271 0.499271 0.524235 
0.499271 0.524235 0.499271 
0.524235 0.499271 0.499271 
0.524235 0.524235 0.524235 
0.549199 0.499271 0.524235 
0.549199 0.524235 0.499271 
0.574162 0.499271 0.499271 
0.474308 0.549199 0.499271 
0.499271 0.549199 0.524235 
0.499271 0.574162 0.499271 
0.524235 0.549199 0.499271 
0.499271 0.474308 0.549199 
0.474308 0.499271 0.549199 
0.499271 0.499271 0.574162 
0.499271 0.524235 0.549199 
0.524235 0.499271 0.549199 
