Ca24 Ge24 Mo16 O96
1.0
12.737449 0.000000 0.000000
0.000000 12.737449 0.000000
0.000000 0.000000 12.737449
Ca Ge Mo O
24 24 16 96
direct
0.250000 0.375000 0.500000 Ca
0.750000 0.125000 0.500000 Ca
0.500000 0.250000 0.375000 Ca
0.500000 0.750000 0.125000 Ca
0.375000 0.500000 0.250000 Ca
0.625000 0.000000 0.250000 Ca
0.250000 0.125000 0.000000 Ca
0.750000 0.375000 0.000000 Ca
0.000000 0.250000 0.125000 Ca
0.000000 0.750000 0.375000 Ca
0.125000 0.000000 0.250000 Ca
0.875000 0.500000 0.250000 Ca
0.750000 0.875000 0.000000 Ca
0.250000 0.625000 0.000000 Ca
0.000000 0.750000 0.875000 Ca
0.000000 0.250000 0.625000 Ca
0.875000 0.000000 0.750000 Ca
0.125000 0.500000 0.750000 Ca
0.750000 0.625000 0.500000 Ca
0.250000 0.875000 0.500000 Ca
0.500000 0.750000 0.625000 Ca
0.500000 0.250000 0.875000 Ca
0.625000 0.500000 0.750000 Ca
0.375000 0.000000 0.750000 Ca
0.875000 0.000000 0.250000 Ge
0.625000 0.500000 0.250000 Ge
0.000000 0.250000 0.875000 Ge
0.750000 0.375000 0.500000 Ge
0.500000 0.250000 0.125000 Ge
0.750000 0.625000 0.000000 Ge
0.750000 0.875000 0.500000 Ge
0.750000 0.125000 0.000000 Ge
0.000000 0.250000 0.375000 Ge
0.500000 0.250000 0.625000 Ge
0.875000 0.500000 0.750000 Ge
0.625000 0.000000 0.750000 Ge
0.375000 0.500000 0.750000 Ge
0.125000 0.000000 0.750000 Ge
0.500000 0.750000 0.375000 Ge
0.250000 0.875000 0.000000 Ge
0.000000 0.750000 0.625000 Ge
0.250000 0.125000 0.500000 Ge
0.250000 0.375000 0.000000 Ge
0.250000 0.625000 0.500000 Ge
0.500000 0.750000 0.875000 Ge
0.000000 0.750000 0.125000 Ge
0.375000 0.000000 0.250000 Ge
0.125000 0.500000 0.250000 Ge
0.500000 0.000000 0.500000 Mo
0.250000 0.250000 0.250000 Mo
0.750000 0.750000 0.250000 Mo
0.750000 0.250000 0.750000 Mo
0.500000 0.000000 0.000000 Mo
0.000000 0.000000 0.500000 Mo
0.500000 0.500000 0.500000 Mo
0.750000 0.250000 0.250000 Mo
0.000000 0.500000 0.000000 Mo
0.750000 0.750000 0.750000 Mo
0.250000 0.250000 0.750000 Mo
0.250000 0.750000 0.250000 Mo
0.000000 0.500000 0.500000 Mo
0.500000 0.500000 0.000000 Mo
0.000000 0.000000 0.000000 Mo
0.250000 0.750000 0.750000 Mo
0.446373 0.342906 0.534322 O
0.534322 0.553627 0.157094 O
0.657094 0.034322 0.053627 O
0.553627 0.157094 0.534322 O
0.407094 0.303627 0.215678 O
0.465678 0.053627 0.342906 O
0.407094 0.696373 0.284322 O
0.657094 0.965678 0.446373 O
0.092906 0.303627 0.784322 O
0.784322 0.092906 0.303627 O
0.696373 0.284322 0.407094 O
0.803627 0.284322 0.592906 O
0.215678 0.407094 0.303627 O
0.303627 0.215678 0.407094 O
0.784322 0.907094 0.196373 O
0.696373 0.715678 0.092906 O
0.715678 0.092906 0.696373 O
0.553627 0.842906 0.965678 O
0.946373 0.157094 0.465678 O
0.407094 0.196373 0.715678 O
0.534322 0.446373 0.342906 O
0.842906 0.965678 0.553627 O
0.342906 0.534322 0.446373 O
0.592906 0.196373 0.215678 O
0.053627 0.157094 0.965678 O
0.965678 0.946373 0.342906 O
0.842906 0.465678 0.446373 O
0.946373 0.342906 0.965678 O
0.092906 0.196373 0.284322 O
0.034322 0.446373 0.157094 O
0.092906 0.803627 0.215678 O
0.842906 0.534322 0.053627 O
0.907094 0.303627 0.284322 O
0.157094 0.965678 0.053627 O
0.657094 0.534322 0.946373 O
0.534322 0.053627 0.842906 O
0.965678 0.053627 0.157094 O
0.553627 0.342906 0.034322 O
0.946373 0.657094 0.534322 O
0.784322 0.407094 0.803627 O
0.803627 0.784322 0.407094 O
0.715678 0.592906 0.303627 O
0.196373 0.284322 0.092906 O
0.284322 0.092906 0.196373 O
0.696373 0.215678 0.907094 O
0.803627 0.215678 0.092906 O
0.715678 0.407094 0.196373 O
0.965678 0.446373 0.657094 O
0.946373 0.842906 0.034322 O
0.034322 0.053627 0.657094 O
0.157094 0.534322 0.553627 O
0.053627 0.657094 0.034322 O
0.907094 0.803627 0.715678 O
0.965678 0.553627 0.842906 O
0.907094 0.196373 0.784322 O
0.157094 0.465678 0.946373 O
0.592906 0.803627 0.284322 O
0.284322 0.592906 0.803627 O
0.196373 0.784322 0.907094 O
0.303627 0.784322 0.092906 O
0.715678 0.907094 0.803627 O
0.803627 0.715678 0.907094 O
0.284322 0.407094 0.696373 O
0.196373 0.215678 0.592906 O
0.215678 0.592906 0.196373 O
0.053627 0.342906 0.465678 O
0.446373 0.657094 0.965678 O
0.907094 0.696373 0.215678 O
0.034322 0.946373 0.842906 O
0.342906 0.465678 0.053627 O
0.842906 0.034322 0.946373 O
0.092906 0.696373 0.715678 O
0.553627 0.657094 0.465678 O
0.465678 0.446373 0.842906 O
0.342906 0.965678 0.946373 O
0.446373 0.842906 0.465678 O
0.592906 0.696373 0.784322 O
0.534322 0.946373 0.657094 O
0.592906 0.303627 0.715678 O
0.342906 0.034322 0.553627 O
0.407094 0.803627 0.784322 O
0.657094 0.465678 0.553627 O
0.157094 0.034322 0.446373 O
0.034322 0.553627 0.342906 O
0.465678 0.553627 0.657094 O
0.053627 0.842906 0.534322 O
0.446373 0.157094 0.034322 O
0.284322 0.907094 0.303627 O
0.303627 0.284322 0.907094 O
0.215678 0.092906 0.803627 O
0.696373 0.784322 0.592906 O
0.784322 0.592906 0.696373 O
0.196373 0.715678 0.407094 O
0.303627 0.715678 0.592906 O
0.215678 0.907094 0.696373 O
0.465678 0.946373 0.157094 O
