Ca24 Ge24 Mo16 O96
1.000000
12.737449000000000 0.000000000000000 0.000000000000000
0.000000000000000 12.737449000000000 0.000000000000000
0.000000000000000 0.000000000000000 12.737449000000000
Ca Ge Mo O
24 24 16 96 
Cartesian
3.184362250000000 4.776543375000000 6.368724500000000 
9.553086750000000 1.592181125000000 6.368724500000000 
6.368724500000000 3.184362250000000 4.776543375000000 
6.368724500000000 9.553086750000000 1.592181125000000 
4.776543375000000 6.368724500000000 3.184362250000000 
7.960905625000000 0.000000000000000 3.184362250000000 
3.184362250000000 1.592181125000000 0.000000000000000 
9.553086750000000 4.776543375000000 0.000000000000000 
0.000000000000000 3.184362250000000 1.592181125000000 
0.000000000000000 9.553086750000000 4.776543375000000 
1.592181125000000 0.000000000000000 3.184362250000000 
11.145267875000000 6.368724500000000 3.184362250000000 
9.553086750000000 11.145267875000000 0.000000000000000 
3.184362250000000 7.960905625000000 0.000000000000000 
0.000000000000000 9.553086750000000 11.145267875000000 
0.000000000000000 3.184362250000000 7.960905625000000 
11.145267875000000 0.000000000000000 9.553086750000000 
1.592181125000000 6.368724500000000 9.553086750000000 
9.553086750000000 7.960905625000000 6.368724500000000 
3.184362250000000 11.145267875000000 6.368724500000000 
6.368724500000000 9.553086750000000 7.960905625000000 
6.368724500000000 3.184362250000000 11.145267875000000 
7.960905625000000 6.368724500000000 9.553086750000000 
4.776543375000000 0.000000000000000 9.553086750000000 
11.145267875000000 0.000000000000000 3.184362250000000 
7.960905625000000 6.368724500000000 3.184362250000000 
0.000000000000000 3.184362250000000 11.145267875000000 
9.553086750000000 4.776543375000000 6.368724500000000 
6.368724500000000 3.184362250000000 1.592181125000000 
9.553086750000000 7.960905625000000 0.000000000000000 
9.553086750000000 11.145267875000000 6.368724500000000 
9.553086750000000 1.592181125000000 0.000000000000000 
0.000000000000000 3.184362250000000 4.776543375000000 
6.368724500000000 3.184362250000000 7.960905625000000 
11.145267875000000 6.368724500000000 9.553086750000000 
7.960905625000000 0.000000000000000 9.553086750000000 
4.776543375000000 6.368724500000000 9.553086750000000 
1.592181125000000 0.000000000000000 9.553086750000000 
6.368724500000000 9.553086750000000 4.776543375000000 
3.184362250000000 11.145267875000000 0.000000000000000 
0.000000000000000 9.553086750000000 7.960905625000000 
3.184362250000000 1.592181125000000 6.368724500000000 
3.184362250000000 4.776543375000000 0.000000000000000 
3.184362250000000 7.960905625000000 6.368724500000000 
6.368724500000000 9.553086750000000 11.145267875000000 
0.000000000000000 9.553086750000000 1.592181125000000 
4.776543375000000 0.000000000000000 3.184362250000000 
1.592181125000000 6.368724500000000 3.184362250000000 
6.368724500000000 0.000000000000000 6.368724500000000 
3.184362250000000 3.184362250000000 3.184362250000000 
9.553086750000000 9.553086750000000 3.184362250000000 
9.553086750000000 3.184362250000000 9.553086750000000 
6.368724500000000 0.000000000000000 0.000000000000000 
0.000000000000000 0.000000000000000 6.368724500000000 
6.368724500000000 6.368724500000000 6.368724500000000 
9.553086750000000 3.184362250000000 3.184362250000000 
0.000000000000000 6.368724500000000 0.000000000000000 
9.553086750000000 9.553086750000000 9.553086750000000 
3.184362250000000 3.184362250000000 9.553086750000000 
3.184362250000000 9.553086750000000 3.184362250000000 
0.000000000000000 6.368724500000000 6.368724500000000 
6.368724500000000 6.368724500000000 0.000000000000000 
0.000000000000000 0.000000000000000 0.000000000000000 
3.184362250000000 9.553086750000000 9.553086750000000 
5.685653322477000 4.367747686794000 6.805899224577999 
6.805899224577999 7.051795677523000 2.000976813206000 
8.369701313205999 0.437174724578000 0.683071177523000 
7.051795677523000 2.000976813206000 6.805899224577999 
5.185339063206000 3.867433427523000 2.747187525422000 
5.931549775422000 0.683071177523000 4.367747686794000 
5.185339063206000 8.870015572477000 3.621536974578000 
8.369701313205999 12.300274275422000 5.685653322477000 
1.183385436794000 3.867433427523000 9.990261474577999 
9.990261474577999 1.183385436794000 3.867433427523000 
8.870015572477000 3.621536974578000 5.185339063206000 
10.236157927522999 3.621536974578000 7.552109936794000 
2.747187525422000 5.185339063206000 3.867433427523000 
3.867433427523000 2.747187525422000 5.185339063206000 
9.990261474577999 11.554063563205998 2.501291072477000 
8.870015572477000 9.115912025422000 1.183385436794000 
9.115912025422000 1.183385436794000 8.870015572477000 
7.051795677523000 10.736472186794000 12.300274275422000 
12.054377822477001 2.000976813206000 5.931549775422000 
5.185339063206000 2.501291072477000 9.115912025422000 
6.805899224577999 5.685653322477000 4.367747686794000 
10.736472186794000 12.300274275422000 7.051795677523000 
4.367747686794000 6.805899224577999 5.685653322477000 
7.552109936794000 2.501291072477000 2.747187525422000 
0.683071177523000 2.000976813206000 12.300274275422000 
12.300274275422000 12.054377822477001 4.367747686794000 
10.736472186794000 5.931549775422000 5.685653322477000 
12.054377822477001 4.367747686794000 12.300274275422000 
1.183385436794000 2.501291072477000 3.621536974578000 
0.437174724578000 5.685653322477000 2.000976813206000 
1.183385436794000 10.236157927522999 2.747187525422000 
10.736472186794000 6.805899224577999 0.683071177523000 
11.554063563205998 3.867433427523000 3.621536974578000 
2.000976813206000 12.300274275422000 0.683071177523000 
8.369701313205999 6.805899224577999 12.054377822477001 
6.805899224577999 0.683071177523000 10.736472186794000 
12.300274275422000 0.683071177523000 2.000976813206000 
7.051795677523000 4.367747686794000 0.437174724578000 
12.054377822477001 8.369701313205999 6.805899224577999 
9.990261474577999 5.185339063206000 10.236157927522999 
10.236157927522999 9.990261474577999 5.185339063206000 
9.115912025422000 7.552109936794000 3.867433427523000 
2.501291072477000 3.621536974578000 1.183385436794000 
3.621536974578000 1.183385436794000 2.501291072477000 
8.870015572477000 2.747187525422000 11.554063563205998 
10.236157927522999 2.747187525422000 1.183385436794000 
9.115912025422000 5.185339063206000 2.501291072477000 
12.300274275422000 5.685653322477000 8.369701313205999 
12.054377822477001 10.736472186794000 0.437174724578000 
0.437174724578000 0.683071177523000 8.369701313205999 
2.000976813206000 6.805899224577999 7.051795677523000 
0.683071177523000 8.369701313205999 0.437174724578000 
11.554063563205998 10.236157927522999 9.115912025422000 
12.300274275422000 7.051795677523000 10.736472186794000 
11.554063563205998 2.501291072477000 9.990261474577999 
2.000976813206000 5.931549775422000 12.054377822477001 
7.552109936794000 10.236157927522999 3.621536974578000 
3.621536974578000 7.552109936794000 10.236157927522999 
2.501291072477000 9.990261474577999 11.554063563205998 
3.867433427523000 9.990261474577999 1.183385436794000 
9.115912025422000 11.554063563205998 10.236157927522999 
10.236157927522999 9.115912025422000 11.554063563205998 
3.621536974578000 5.185339063206000 8.870015572477000 
2.501291072477000 2.747187525422000 7.552109936794000 
2.747187525422000 7.552109936794000 2.501291072477000 
0.683071177523000 4.367747686794000 5.931549775422000 
5.685653322477000 8.369701313205999 12.300274275422000 
11.554063563205998 8.870015572477000 2.747187525422000 
0.437174724578000 12.054377822477001 10.736472186794000 
4.367747686794000 5.931549775422000 0.683071177523000 
10.736472186794000 0.437174724578000 12.054377822477001 
1.183385436794000 8.870015572477000 9.115912025422000 
7.051795677523000 8.369701313205999 5.931549775422000 
5.931549775422000 5.685653322477000 10.736472186794000 
4.367747686794000 12.300274275422000 12.054377822477001 
5.685653322477000 10.736472186794000 5.931549775422000 
7.552109936794000 8.870015572477000 9.990261474577999 
6.805899224577999 12.054377822477001 8.369701313205999 
7.552109936794000 3.867433427523000 9.115912025422000 
4.367747686794000 0.437174724578000 7.051795677523000 
5.185339063206000 10.236157927522999 9.990261474577999 
8.369701313205999 5.931549775422000 7.051795677523000 
2.000976813206000 0.437174724578000 5.685653322477000 
0.437174724578000 7.051795677523000 4.367747686794000 
5.931549775422000 7.051795677523000 8.369701313205999 
0.683071177523000 10.736472186794000 6.805899224577999 
5.685653322477000 2.000976813206000 0.437174724578000 
3.621536974578000 11.554063563205998 3.867433427523000 
3.867433427523000 3.621536974578000 11.554063563205998 
2.747187525422000 1.183385436794000 10.236157927522999 
8.870015572477000 9.990261474577999 7.552109936794000 
9.990261474577999 7.552109936794000 8.870015572477000 
2.501291072477000 9.115912025422000 5.185339063206000 
3.867433427523000 9.115912025422000 7.552109936794000 
2.747187525422000 11.554063563205998 8.870015572477000 
5.931549775422000 12.054377822477001 2.000976813206000 
