Pd4
1.0
3.953336 0.000000 0.000000
0.000000 3.953336 0.000000
0.000000 0.000000 3.953336
Pd
4
direct
0.000000 0.000000 0.000000 Pd
0.000000 0.500000 0.500000 Pd
0.500000 0.000000 0.500000 Pd
0.500000 0.500000 0.000000 Pd
