Ni4
1.000000
3.508036 0.000000 0.000000
0.000000 3.508036 0.000000
0.000000 0.000000 3.508036
Ni 
4 
Cartesian
0.000000 0.000000 0.000000 TTT
0.000000 1.754018 1.754018 TTT
1.754018 0.000000 1.754018 TTT
1.754018 1.754018 0.000000 TTT
