W2
1.000000
7.80753 0.000000 0.000000
0.000000 4.50768 0.000000
0.000000 0.000000 2.76037
W 
250 
Cartesian
7.178240 7.171678 -5.250024 
7.176783 7.171679 -2.489651 
8.478523 9.425520 -3.409086 
8.477067 9.425520 -0.648706 
9.778811 11.679361 -1.568146 
9.777348 11.679361 1.192233 
11.079090 13.933201 0.272792 
11.077631 13.933201 3.033173 
12.379374 16.187042 2.113735 
12.377913 16.187042 4.874112 
4.574756 7.171679 -3.411140 
4.573300 7.171679 -0.650764 
5.875041 9.425520 -1.570206 
5.873587 9.425520 1.190167 
7.175325 11.679361 0.270730 
7.173866 11.679361 3.031109 
8.475608 13.933202 2.111673 
8.474148 13.933203 4.872049 
9.775894 16.187042 3.952613 
9.774433 16.187042 6.712990 
1.971275 7.171679 -1.572266 
1.969816 7.171679 1.188112 
3.271559 9.425520 0.268673 
3.270101 9.425520 3.029053 
4.571845 11.679361 2.109613 
4.570385 11.679361 4.869990 
5.872127 13.933203 3.950551 
5.870669 13.933201 6.710929 
7.172409 16.187042 5.791489 
7.170950 16.187042 8.551867 
-0.632198 7.171679 0.266610 
-0.633664 7.171679 3.026987 
0.668079 9.425520 2.107549 
0.666624 9.425520 4.867925 
1.968363 11.679361 3.948489 
1.966902 11.679361 6.708866 
3.268644 13.933203 5.789427 
3.267187 13.933201 8.549809 
4.568933 16.187042 7.630365 
4.567472 16.187042 10.390743 
-3.235676 7.171679 2.105489 
-3.237142 7.171679 4.865865 
-1.935400 9.425520 3.946427 
-1.936863 9.425520 6.706805 
-0.635118 11.679361 5.787369 
-0.636573 11.679361 8.547746 
0.665163 13.933202 7.628306 
0.663704 13.933203 10.388685 
1.965446 16.187042 9.469246 
1.963989 16.187044 12.229624 
8.478523 4.917838 -3.409086 
8.477067 4.917838 -0.648706 
9.778811 7.171679 -1.568146 
9.777351 7.171679 1.192233 
11.079090 9.425520 0.272792 
11.077635 9.425521 3.033176 
12.379374 11.679361 2.113735 
12.377913 11.679361 4.874111 
13.679653 13.933202 3.954673 
13.678200 13.933203 6.715052 
5.875041 4.917838 -1.570206 
5.873588 4.917838 1.190166 
7.175325 7.171679 0.270730 
7.173864 7.171679 3.031110 
8.475608 9.425520 2.111673 
8.474150 9.425521 4.872051 
9.775894 11.679360 3.952613 
9.774435 11.679361 6.712990 
11.076176 13.933202 5.793551 
11.074718 13.933203 8.553927 
3.271559 4.917837 0.268672 
3.270101 4.917838 3.029053 
4.571845 7.171679 2.109613 
4.570387 7.171679 4.869989 
5.872127 9.425520 3.950550 
5.870670 9.425520 6.710931 
7.172410 11.679360 5.791492 
7.170952 11.679361 8.551867 
8.472691 13.933202 7.632429 
8.471234 13.933203 10.392808 
0.668078 4.917838 2.107546 
0.666624 4.917838 4.867925 
1.968363 7.171679 3.948488 
1.966899 7.171679 6.708869 
3.268644 9.425520 5.789427 
3.267189 9.425521 8.549809 
4.568933 11.679361 7.630365 
4.567472 11.679360 10.390743 
5.869209 13.933203 9.471304 
5.867753 13.933203 12.231684 
-1.935398 4.917838 3.946427 
-1.936863 4.917838 6.706805 
-0.635118 7.171679 5.787369 
-0.636573 7.171679 8.547746 
0.665163 9.425520 7.628306 
0.663705 9.425520 10.388681 
1.965446 11.679361 9.469246 
1.963987 11.679360 12.229625 
3.265730 13.933202 11.310182 
3.264271 13.933205 14.070564 
9.778811 2.663996 -1.568146 
9.777348 2.663995 1.192233 
11.079090 4.917838 0.272792 
11.077635 4.917836 3.033176 
12.379374 7.171679 2.113735 
12.377914 7.171679 4.874111 
13.679653 9.425520 3.954673 
13.678200 9.425519 6.715052 
14.979939 11.679361 5.795612 
14.978479 11.679361 8.555990 
7.175323 2.663996 0.270730 
7.173866 2.663995 3.031109 
8.475608 4.917838 2.111673 
8.474150 4.917837 4.872051 
9.775894 7.171679 3.952613 
9.774433 7.171679 6.712991 
11.076176 9.425520 5.793551 
11.074715 9.425519 8.553929 
12.376460 11.679361 7.634490 
12.374998 11.679360 10.394868 
4.571842 2.663996 2.109609 
4.570385 2.663996 4.869990 
5.872127 4.917837 3.950551 
5.870670 4.917836 6.710931 
7.172410 7.171679 5.791492 
7.170953 7.171679 8.551867 
8.472692 9.425520 7.632432 
8.471238 9.425519 10.392808 
9.772977 11.679361 9.473371 
9.771523 11.679361 12.233749 
1.968361 2.663996 3.948490 
1.966902 2.663995 6.708866 
3.268644 4.917838 5.789427 
3.267189 4.917836 8.549809 
4.568933 7.171679 7.630365 
4.567473 7.171679 10.390743 
5.869209 9.425520 9.471304 
5.867755 9.425520 12.231686 
7.169493 11.679361 11.312251 
7.168038 11.679360 14.072624 
-0.635118 2.663996 5.787369 
-0.636573 2.663996 8.547746 
0.665163 4.917838 7.628306 
0.663705 4.917836 10.388681 
1.965446 7.171679 9.469246 
1.963989 7.171679 12.229624 
3.265730 9.425520 11.310182 
3.264273 9.425519 14.070568 
4.566008 11.679361 13.151127 
4.564553 11.679361 15.911517 
11.079090 0.410154 0.272791 
11.077635 0.410156 3.033176 
12.379374 2.663996 2.113735 
12.377913 2.663996 4.874111 
13.679653 4.917838 3.954673 
13.678200 4.917839 6.715052 
14.979939 7.171679 5.795612 
14.978476 7.171679 8.555990 
16.280233 9.425520 7.636551 
16.278763 9.425520 10.396933 
8.475608 0.410155 2.111674 
8.474148 0.410155 4.872049 
9.775894 2.663996 3.952613 
9.774435 2.663996 6.712990 
11.076176 4.917837 5.793551 
11.074715 4.917839 8.553929 
12.376458 7.171679 7.634487 
12.374996 7.171679 10.394864 
13.676743 9.425520 9.475433 
13.675283 9.425520 12.235808 
5.872127 0.410155 3.950550 
5.870670 0.410155 6.710930 
7.172410 2.663996 5.791492 
7.170952 2.663996 8.551867 
8.472692 4.917837 7.632432 
8.471238 4.917839 10.392808 
9.772975 7.171679 9.473367 
9.771521 7.171679 12.233755 
11.073263 9.425520 11.314308 
11.071798 9.425520 14.074687 
3.268645 0.410155 5.789428 
3.267187 0.410155 8.549809 
4.568933 2.663996 7.630365 
4.567472 2.663996 10.390743 
5.869209 4.917838 9.471304 
5.867755 4.917838 12.231686 
7.169493 7.171679 11.312243 
7.168039 7.171679 14.072622 
8.469774 9.425520 13.153186 
8.468317 9.425520 15.913569 
0.665163 0.410155 7.628306 
0.663704 0.410155 10.388685 
1.965446 2.663996 9.469246 
1.963987 2.663996 12.229625 
3.265730 4.917838 11.310182 
3.264273 4.917839 14.070568 
4.566008 7.171679 13.151125 
4.564554 7.171679 15.911504 
5.866298 9.425521 14.992064 
5.864838 9.425522 17.752445 
12.379375 -1.843689 2.113736 
12.377911 -1.843687 4.874112 
13.679653 0.410155 3.954673 
13.678200 0.410155 6.715052 
14.979939 2.663996 5.795612 
14.978479 2.663997 8.555990 
16.280233 4.917838 7.636551 
16.278763 4.917837 10.396933 
17.580513 7.171679 9.477492 
17.579042 7.171679 12.237871 
9.775892 -1.843687 3.952614 
9.774435 -1.843689 6.712990 
11.076176 0.410155 5.793551 
11.074718 0.410155 8.553927 
12.376460 2.663996 7.634490 
12.374998 2.663997 10.394868 
13.676743 4.917838 9.475433 
13.675283 4.917838 12.235808 
14.977022 7.171679 11.316366 
14.975574 7.171679 14.076757 
7.172410 -1.843687 5.791492 
7.170952 -1.843689 8.551867 
8.472691 0.410155 7.632429 
8.471234 0.410155 10.392808 
9.772977 2.663996 9.473371 
9.771523 2.663997 12.233749 
11.073263 4.917838 11.314308 
11.071798 4.917837 14.074687 
12.373542 7.171679 13.155249 
12.372088 7.171679 15.915626 
4.568933 -1.843689 7.630365 
4.567472 -1.843687 10.390743 
5.869212 0.410155 9.471304 
5.867753 0.410155 12.231684 
7.169495 2.663997 11.312242 
7.168038 2.663997 14.072624 
8.469778 4.917837 13.153192 
8.468317 4.917838 15.913569 
9.770062 7.171679 14.994120 
9.768601 7.171679 17.754505 
1.965446 -1.843687 9.469246 
1.963987 -1.843687 12.229625 
3.265730 0.410155 11.310182 
3.264272 0.410155 14.070564 
4.566008 2.663996 13.151127 
4.564553 2.663996 15.911517 
5.866298 4.917837 14.992064 
5.864838 4.917837 17.752445 
7.166578 7.171679 16.833008 
7.165116 7.171679 19.593391 
