Pd4
1.000000
35.580025 0.000000 0.000000
0.000000 35.580025 0.000000
0.000000 0.000000 35.580025
Pd 
1133 
Cartesian
11.860008 9.883340 1.976668 
15.813344 9.883340 1.976668 
19.766680 9.883340 1.976668 
9.883340 11.860008 1.976668 
11.860008 11.860008 0.000000 
11.860008 13.836677 1.976668 
13.836677 11.860008 1.976668 
13.836677 13.836677 0.000000 
15.813344 11.860008 0.000000 
15.813344 13.836677 1.976668 
17.790012 11.860008 1.976668 
17.790012 13.836677 0.000000 
19.766680 11.860008 0.000000 
19.766680 13.836677 1.976668 
21.743347 11.860008 1.976668 
9.883340 15.813344 1.976668 
11.860008 15.813344 0.000000 
11.860008 17.790012 1.976668 
13.836677 15.813344 1.976668 
13.836677 17.790012 0.000000 
15.813344 15.813344 0.000000 
15.813344 17.790012 1.976668 
17.790012 15.813344 1.976668 
17.790012 17.790012 0.000000 
19.766680 15.813344 0.000000 
19.766680 17.790012 1.976668 
21.743347 15.813344 1.976668 
9.883340 19.766680 1.976668 
11.860008 19.766680 0.000000 
11.860008 21.743347 1.976668 
13.836677 19.766680 1.976668 
15.813344 19.766680 0.000000 
15.813344 21.743347 1.976668 
17.790012 19.766680 1.976668 
19.766680 19.766680 0.000000 
19.766680 21.743347 1.976668 
21.743347 19.766680 1.976668 
7.906672 5.930004 5.930004 
11.860008 5.930004 5.930004 
15.813344 5.930004 5.930004 
19.766680 5.930004 5.930004 
23.720016 5.930004 5.930004 
5.930004 7.906672 5.930004 
7.906672 7.906672 3.953336 
7.906672 9.883340 5.930004 
9.883340 7.906672 5.930004 
9.883340 9.883340 3.953336 
11.860008 7.906672 3.953336 
11.860008 9.883340 5.930004 
13.836677 7.906672 5.930004 
13.836677 9.883340 3.953336 
15.813344 7.906672 3.953336 
15.813344 9.883340 5.930004 
17.790012 7.906672 5.930004 
17.790012 9.883340 3.953336 
19.766680 7.906672 3.953336 
19.766680 9.883340 5.930004 
21.743347 7.906672 5.930004 
21.743347 9.883340 3.953336 
23.720016 7.906672 3.953336 
23.720016 9.883340 5.930004 
25.696684 7.906672 5.930004 
5.930004 11.860008 5.930004 
7.906672 11.860008 3.953336 
7.906672 13.836677 5.930004 
9.883340 11.860008 5.930004 
9.883340 13.836677 3.953336 
11.860008 11.860008 3.953336 
11.860008 13.836677 5.930004 
13.836677 11.860008 5.930004 
13.836677 13.836677 3.953336 
15.813344 11.860008 3.953336 
15.813344 13.836677 5.930004 
17.790012 11.860008 5.930004 
17.790012 13.836677 3.953336 
19.766680 11.860008 3.953336 
19.766680 13.836677 5.930004 
21.743347 11.860008 5.930004 
21.743347 13.836677 3.953336 
23.720016 11.860008 3.953336 
23.720016 13.836677 5.930004 
25.696684 11.860008 5.930004 
5.930004 15.813344 5.930004 
7.906672 15.813344 3.953336 
7.906672 17.790012 5.930004 
9.883340 15.813344 5.930004 
9.883340 17.790012 3.953336 
11.860008 15.813344 3.953336 
11.860008 17.790012 5.930004 
13.836677 15.813344 5.930004 
13.836677 17.790012 3.953336 
15.813344 15.813344 3.953336 
15.813344 17.790012 5.930004 
17.790012 15.813344 5.930004 
17.790012 17.790012 3.953336 
19.766680 15.813344 3.953336 
19.766680 17.790012 5.930004 
21.743347 15.813344 5.930004 
21.743347 17.790012 3.953336 
23.720016 15.813344 3.953336 
23.720016 17.790012 5.930004 
25.696684 15.813344 5.930004 
5.930004 19.766680 5.930004 
7.906672 19.766680 3.953336 
7.906672 21.743347 5.930004 
9.883340 19.766680 5.930004 
9.883340 21.743347 3.953336 
11.860008 19.766680 3.953336 
11.860008 21.743347 5.930004 
13.836677 19.766680 5.930004 
13.836677 21.743347 3.953336 
15.813344 19.766680 3.953336 
15.813344 21.743347 5.930004 
17.790012 19.766680 5.930004 
17.790012 21.743347 3.953336 
19.766680 19.766680 3.953336 
19.766680 21.743347 5.930004 
21.743347 19.766680 5.930004 
21.743347 21.743347 3.953336 
23.720016 19.766680 3.953336 
23.720016 21.743347 5.930004 
25.696684 19.766680 5.930004 
5.930004 23.720016 5.930004 
7.906672 23.720016 3.953336 
7.906672 25.696684 5.930004 
9.883340 23.720016 5.930004 
11.860008 23.720016 3.953336 
11.860008 25.696684 5.930004 
13.836677 23.720016 5.930004 
15.813344 23.720016 3.953336 
15.813344 25.696684 5.930004 
17.790012 23.720016 5.930004 
19.766680 23.720016 3.953336 
19.766680 25.696684 5.930004 
21.743347 23.720016 5.930004 
23.720016 23.720016 3.953336 
23.720016 25.696684 5.930004 
25.696684 23.720016 5.930004 
11.860008 1.976668 9.883340 
15.813344 1.976668 9.883340 
19.766680 1.976668 9.883340 
5.930004 5.930004 7.906672 
7.906672 3.953336 7.906672 
7.906672 5.930004 9.883340 
9.883340 3.953336 9.883340 
9.883340 5.930004 7.906672 
11.860008 3.953336 7.906672 
11.860008 5.930004 9.883340 
13.836677 3.953336 9.883340 
13.836677 5.930004 7.906672 
15.813344 3.953336 7.906672 
15.813344 5.930004 9.883340 
17.790012 3.953336 9.883340 
17.790012 5.930004 7.906672 
19.766680 3.953336 7.906672 
19.766680 5.930004 9.883340 
21.743347 3.953336 9.883340 
21.743347 5.930004 7.906672 
23.720016 3.953336 7.906672 
23.720016 5.930004 9.883340 
25.696684 5.930004 7.906672 
3.953336 7.906672 7.906672 
3.953336 9.883340 9.883340 
5.930004 7.906672 9.883340 
5.930004 9.883340 7.906672 
7.906672 7.906672 7.906672 
7.906672 9.883340 9.883340 
9.883340 7.906672 9.883340 
9.883340 9.883340 7.906672 
11.860008 7.906672 7.906672 
11.860008 9.883340 9.883340 
13.836677 7.906672 9.883340 
13.836677 9.883340 7.906672 
15.813344 7.906672 7.906672 
15.813344 9.883340 9.883340 
17.790012 7.906672 9.883340 
17.790012 9.883340 7.906672 
19.766680 7.906672 7.906672 
19.766680 9.883340 9.883340 
21.743347 7.906672 9.883340 
21.743347 9.883340 7.906672 
23.720016 7.906672 7.906672 
23.720016 9.883340 9.883340 
25.696684 7.906672 9.883340 
25.696684 9.883340 7.906672 
27.673351 7.906672 7.906672 
27.673351 9.883340 9.883340 
1.976668 11.860008 9.883340 
3.953336 11.860008 7.906672 
3.953336 13.836677 9.883340 
5.930004 11.860008 9.883340 
5.930004 13.836677 7.906672 
7.906672 11.860008 7.906672 
7.906672 13.836677 9.883340 
9.883340 11.860008 9.883340 
9.883340 13.836677 7.906672 
11.860008 11.860008 7.906672 
11.860008 13.836677 9.883340 
13.836677 11.860008 9.883340 
13.836677 13.836677 7.906672 
15.813344 11.860008 7.906672 
15.813344 13.836677 9.883340 
17.790012 11.860008 9.883340 
17.790012 13.836677 7.906672 
19.766680 11.860008 7.906672 
19.766680 13.836677 9.883340 
21.743347 11.860008 9.883340 
21.743347 13.836677 7.906672 
23.720016 11.860008 7.906672 
23.720016 13.836677 9.883340 
25.696684 11.860008 9.883340 
25.696684 13.836677 7.906672 
27.673351 11.860008 7.906672 
27.673351 13.836677 9.883340 
29.650019 11.860008 9.883340 
1.976668 15.813344 9.883340 
3.953336 15.813344 7.906672 
3.953336 17.790012 9.883340 
5.930004 15.813344 9.883340 
5.930004 17.790012 7.906672 
7.906672 15.813344 7.906672 
7.906672 17.790012 9.883340 
9.883340 15.813344 9.883340 
9.883340 17.790012 7.906672 
11.860008 15.813344 7.906672 
11.860008 17.790012 9.883340 
13.836677 15.813344 9.883340 
13.836677 17.790012 7.906672 
15.813344 15.813344 7.906672 
15.813344 17.790012 9.883340 
17.790012 15.813344 9.883340 
17.790012 17.790012 7.906672 
19.766680 15.813344 7.906672 
19.766680 17.790012 9.883340 
21.743347 15.813344 9.883340 
21.743347 17.790012 7.906672 
23.720016 15.813344 7.906672 
23.720016 17.790012 9.883340 
25.696684 15.813344 9.883340 
25.696684 17.790012 7.906672 
27.673351 15.813344 7.906672 
27.673351 17.790012 9.883340 
29.650019 15.813344 9.883340 
1.976668 19.766680 9.883340 
3.953336 19.766680 7.906672 
3.953336 21.743347 9.883340 
5.930004 19.766680 9.883340 
5.930004 21.743347 7.906672 
7.906672 19.766680 7.906672 
7.906672 21.743347 9.883340 
9.883340 19.766680 9.883340 
9.883340 21.743347 7.906672 
11.860008 19.766680 7.906672 
11.860008 21.743347 9.883340 
13.836677 19.766680 9.883340 
13.836677 21.743347 7.906672 
15.813344 19.766680 7.906672 
15.813344 21.743347 9.883340 
17.790012 19.766680 9.883340 
17.790012 21.743347 7.906672 
19.766680 19.766680 7.906672 
19.766680 21.743347 9.883340 
21.743347 19.766680 9.883340 
21.743347 21.743347 7.906672 
23.720016 19.766680 7.906672 
23.720016 21.743347 9.883340 
25.696684 19.766680 9.883340 
25.696684 21.743347 7.906672 
27.673351 19.766680 7.906672 
27.673351 21.743347 9.883340 
29.650019 19.766680 9.883340 
3.953336 23.720016 7.906672 
5.930004 23.720016 9.883340 
5.930004 25.696684 7.906672 
7.906672 23.720016 7.906672 
7.906672 25.696684 9.883340 
9.883340 23.720016 9.883340 
9.883340 25.696684 7.906672 
11.860008 23.720016 7.906672 
11.860008 25.696684 9.883340 
13.836677 23.720016 9.883340 
13.836677 25.696684 7.906672 
15.813344 23.720016 7.906672 
15.813344 25.696684 9.883340 
17.790012 23.720016 9.883340 
17.790012 25.696684 7.906672 
19.766680 23.720016 7.906672 
19.766680 25.696684 9.883340 
21.743347 23.720016 9.883340 
21.743347 25.696684 7.906672 
23.720016 23.720016 7.906672 
23.720016 25.696684 9.883340 
25.696684 23.720016 9.883340 
25.696684 25.696684 7.906672 
27.673351 23.720016 7.906672 
7.906672 27.673351 7.906672 
9.883340 27.673351 9.883340 
11.860008 27.673351 7.906672 
11.860008 29.650019 9.883340 
13.836677 27.673351 9.883340 
15.813344 27.673351 7.906672 
15.813344 29.650019 9.883340 
17.790012 27.673351 9.883340 
19.766680 27.673351 7.906672 
19.766680 29.650019 9.883340 
21.743347 27.673351 9.883340 
23.720016 27.673351 7.906672 
9.883340 1.976668 11.860008 
11.860008 0.000000 11.860008 
11.860008 1.976668 13.836677 
13.836677 0.000000 13.836677 
13.836677 1.976668 11.860008 
15.813344 0.000000 11.860008 
15.813344 1.976668 13.836677 
17.790012 0.000000 13.836677 
17.790012 1.976668 11.860008 
19.766680 0.000000 11.860008 
19.766680 1.976668 13.836677 
21.743347 1.976668 11.860008 
5.930004 5.930004 11.860008 
7.906672 3.953336 11.860008 
7.906672 5.930004 13.836677 
9.883340 3.953336 13.836677 
9.883340 5.930004 11.860008 
11.860008 3.953336 11.860008 
11.860008 5.930004 13.836677 
13.836677 3.953336 13.836677 
13.836677 5.930004 11.860008 
15.813344 3.953336 11.860008 
15.813344 5.930004 13.836677 
17.790012 3.953336 13.836677 
17.790012 5.930004 11.860008 
19.766680 3.953336 11.860008 
19.766680 5.930004 13.836677 
21.743347 3.953336 13.836677 
21.743347 5.930004 11.860008 
23.720016 3.953336 11.860008 
23.720016 5.930004 13.836677 
25.696684 5.930004 11.860008 
1.976668 9.883340 11.860008 
3.953336 7.906672 11.860008 
3.953336 9.883340 13.836677 
5.930004 7.906672 13.836677 
5.930004 9.883340 11.860008 
7.906672 7.906672 11.860008 
7.906672 9.883340 13.836677 
9.883340 7.906672 13.836677 
9.883340 9.883340 11.860008 
11.860008 7.906672 11.860008 
11.860008 9.883340 13.836677 
13.836677 7.906672 13.836677 
13.836677 9.883340 11.860008 
15.813344 7.906672 11.860008 
15.813344 9.883340 13.836677 
17.790012 7.906672 13.836677 
17.790012 9.883340 11.860008 
19.766680 7.906672 11.860008 
19.766680 9.883340 13.836677 
21.743347 7.906672 13.836677 
21.743347 9.883340 11.860008 
23.720016 7.906672 11.860008 
23.720016 9.883340 13.836677 
25.696684 7.906672 13.836677 
25.696684 9.883340 11.860008 
27.673351 7.906672 11.860008 
27.673351 9.883340 13.836677 
29.650019 9.883340 11.860008 
0.000000 11.860008 11.860008 
0.000000 13.836677 13.836677 
1.976668 11.860008 13.836677 
1.976668 13.836677 11.860008 
3.953336 11.860008 11.860008 
3.953336 13.836677 13.836677 
5.930004 11.860008 13.836677 
5.930004 13.836677 11.860008 
7.906672 11.860008 11.860008 
7.906672 13.836677 13.836677 
9.883340 11.860008 13.836677 
9.883340 13.836677 11.860008 
11.860008 11.860008 11.860008 
11.860008 13.836677 13.836677 
13.836677 11.860008 13.836677 
13.836677 13.836677 11.860008 
15.813344 11.860008 11.860008 
15.813344 13.836677 13.836677 
17.790012 11.860008 13.836677 
17.790012 13.836677 11.860008 
19.766680 11.860008 11.860008 
19.766680 13.836677 13.836677 
21.743347 11.860008 13.836677 
21.743347 13.836677 11.860008 
23.720016 11.860008 11.860008 
23.720016 13.836677 13.836677 
25.696684 11.860008 13.836677 
25.696684 13.836677 11.860008 
27.673351 11.860008 11.860008 
27.673351 13.836677 13.836677 
29.650019 11.860008 13.836677 
29.650019 13.836677 11.860008 
31.626688 11.860008 11.860008 
31.626688 13.836677 13.836677 
0.000000 15.813344 11.860008 
0.000000 17.790012 13.836677 
1.976668 15.813344 13.836677 
1.976668 17.790012 11.860008 
3.953336 15.813344 11.860008 
3.953336 17.790012 13.836677 
5.930004 15.813344 13.836677 
5.930004 17.790012 11.860008 
7.906672 15.813344 11.860008 
7.906672 17.790012 13.836677 
9.883340 15.813344 13.836677 
9.883340 17.790012 11.860008 
11.860008 15.813344 11.860008 
11.860008 17.790012 13.836677 
13.836677 15.813344 13.836677 
13.836677 17.790012 11.860008 
15.813344 15.813344 11.860008 
15.813344 17.790012 13.836677 
17.790012 15.813344 13.836677 
17.790012 17.790012 11.860008 
19.766680 15.813344 11.860008 
19.766680 17.790012 13.836677 
21.743347 15.813344 13.836677 
21.743347 17.790012 11.860008 
23.720016 15.813344 11.860008 
23.720016 17.790012 13.836677 
25.696684 15.813344 13.836677 
25.696684 17.790012 11.860008 
27.673351 15.813344 11.860008 
27.673351 17.790012 13.836677 
29.650019 15.813344 13.836677 
29.650019 17.790012 11.860008 
31.626688 15.813344 11.860008 
31.626688 17.790012 13.836677 
0.000000 19.766680 11.860008 
1.976668 19.766680 13.836677 
1.976668 21.743347 11.860008 
3.953336 19.766680 11.860008 
3.953336 21.743347 13.836677 
5.930004 19.766680 13.836677 
5.930004 21.743347 11.860008 
7.906672 19.766680 11.860008 
7.906672 21.743347 13.836677 
9.883340 19.766680 13.836677 
9.883340 21.743347 11.860008 
11.860008 19.766680 11.860008 
11.860008 21.743347 13.836677 
13.836677 19.766680 13.836677 
13.836677 21.743347 11.860008 
15.813344 19.766680 11.860008 
15.813344 21.743347 13.836677 
17.790012 19.766680 13.836677 
17.790012 21.743347 11.860008 
19.766680 19.766680 11.860008 
19.766680 21.743347 13.836677 
21.743347 19.766680 13.836677 
21.743347 21.743347 11.860008 
23.720016 19.766680 11.860008 
23.720016 21.743347 13.836677 
25.696684 19.766680 13.836677 
25.696684 21.743347 11.860008 
27.673351 19.766680 11.860008 
27.673351 21.743347 13.836677 
29.650019 19.766680 13.836677 
29.650019 21.743347 11.860008 
31.626688 19.766680 11.860008 
3.953336 23.720016 11.860008 
5.930004 23.720016 13.836677 
5.930004 25.696684 11.860008 
7.906672 23.720016 11.860008 
7.906672 25.696684 13.836677 
9.883340 23.720016 13.836677 
9.883340 25.696684 11.860008 
11.860008 23.720016 11.860008 
11.860008 25.696684 13.836677 
13.836677 23.720016 13.836677 
13.836677 25.696684 11.860008 
15.813344 23.720016 11.860008 
15.813344 25.696684 13.836677 
17.790012 23.720016 13.836677 
17.790012 25.696684 11.860008 
19.766680 23.720016 11.860008 
19.766680 25.696684 13.836677 
21.743347 23.720016 13.836677 
21.743347 25.696684 11.860008 
23.720016 23.720016 11.860008 
23.720016 25.696684 13.836677 
25.696684 23.720016 13.836677 
25.696684 25.696684 11.860008 
27.673351 23.720016 11.860008 
7.906672 27.673351 11.860008 
9.883340 27.673351 13.836677 
9.883340 29.650019 11.860008 
11.860008 27.673351 11.860008 
11.860008 29.650019 13.836677 
13.836677 27.673351 13.836677 
13.836677 29.650019 11.860008 
15.813344 27.673351 11.860008 
15.813344 29.650019 13.836677 
17.790012 27.673351 13.836677 
17.790012 29.650019 11.860008 
19.766680 27.673351 11.860008 
19.766680 29.650019 13.836677 
21.743347 27.673351 13.836677 
21.743347 29.650019 11.860008 
23.720016 27.673351 11.860008 
11.860008 31.626688 11.860008 
13.836677 31.626688 13.836677 
15.813344 31.626688 11.860008 
17.790012 31.626688 13.836677 
19.766680 31.626688 11.860008 
9.883340 1.976668 15.813344 
11.860008 0.000000 15.813344 
11.860008 1.976668 17.790012 
13.836677 0.000000 17.790012 
13.836677 1.976668 15.813344 
15.813344 0.000000 15.813344 
15.813344 1.976668 17.790012 
17.790012 0.000000 17.790012 
17.790012 1.976668 15.813344 
19.766680 0.000000 15.813344 
19.766680 1.976668 17.790012 
21.743347 1.976668 15.813344 
5.930004 5.930004 15.813344 
7.906672 3.953336 15.813344 
7.906672 5.930004 17.790012 
9.883340 3.953336 17.790012 
9.883340 5.930004 15.813344 
11.860008 3.953336 15.813344 
11.860008 5.930004 17.790012 
13.836677 3.953336 17.790012 
13.836677 5.930004 15.813344 
15.813344 3.953336 15.813344 
15.813344 5.930004 17.790012 
17.790012 3.953336 17.790012 
17.790012 5.930004 15.813344 
19.766680 3.953336 15.813344 
19.766680 5.930004 17.790012 
21.743347 3.953336 17.790012 
21.743347 5.930004 15.813344 
23.720016 3.953336 15.813344 
23.720016 5.930004 17.790012 
25.696684 5.930004 15.813344 
1.976668 9.883340 15.813344 
3.953336 7.906672 15.813344 
3.953336 9.883340 17.790012 
5.930004 7.906672 17.790012 
5.930004 9.883340 15.813344 
7.906672 7.906672 15.813344 
7.906672 9.883340 17.790012 
9.883340 7.906672 17.790012 
9.883340 9.883340 15.813344 
11.860008 7.906672 15.813344 
11.860008 9.883340 17.790012 
13.836677 7.906672 17.790012 
13.836677 9.883340 15.813344 
15.813344 7.906672 15.813344 
15.813344 9.883340 17.790012 
17.790012 7.906672 17.790012 
17.790012 9.883340 15.813344 
19.766680 7.906672 15.813344 
19.766680 9.883340 17.790012 
21.743347 7.906672 17.790012 
21.743347 9.883340 15.813344 
23.720016 7.906672 15.813344 
23.720016 9.883340 17.790012 
25.696684 7.906672 17.790012 
25.696684 9.883340 15.813344 
27.673351 7.906672 15.813344 
27.673351 9.883340 17.790012 
29.650019 9.883340 15.813344 
0.000000 11.860008 15.813344 
0.000000 13.836677 17.790012 
1.976668 11.860008 17.790012 
1.976668 13.836677 15.813344 
3.953336 11.860008 15.813344 
3.953336 13.836677 17.790012 
5.930004 11.860008 17.790012 
5.930004 13.836677 15.813344 
7.906672 11.860008 15.813344 
7.906672 13.836677 17.790012 
9.883340 11.860008 17.790012 
9.883340 13.836677 15.813344 
11.860008 11.860008 15.813344 
11.860008 13.836677 17.790012 
13.836677 11.860008 17.790012 
13.836677 13.836677 15.813344 
15.813344 11.860008 15.813344 
15.813344 13.836677 17.790012 
17.790012 11.860008 17.790012 
17.790012 13.836677 15.813344 
19.766680 11.860008 15.813344 
19.766680 13.836677 17.790012 
21.743347 11.860008 17.790012 
21.743347 13.836677 15.813344 
23.720016 11.860008 15.813344 
23.720016 13.836677 17.790012 
25.696684 11.860008 17.790012 
25.696684 13.836677 15.813344 
27.673351 11.860008 15.813344 
27.673351 13.836677 17.790012 
29.650019 11.860008 17.790012 
29.650019 13.836677 15.813344 
31.626688 11.860008 15.813344 
31.626688 13.836677 17.790012 
0.000000 15.813344 15.813344 
0.000000 17.790012 17.790012 
1.976668 15.813344 17.790012 
1.976668 17.790012 15.813344 
3.953336 15.813344 15.813344 
3.953336 17.790012 17.790012 
5.930004 15.813344 17.790012 
5.930004 17.790012 15.813344 
7.906672 15.813344 15.813344 
7.906672 17.790012 17.790012 
9.883340 15.813344 17.790012 
9.883340 17.790012 15.813344 
11.860008 15.813344 15.813344 
11.860008 17.790012 17.790012 
13.836677 15.813344 17.790012 
13.836677 17.790012 15.813344 
15.813344 15.813344 15.813344 
15.813344 17.790012 17.790012 
17.790012 15.813344 17.790012 
17.790012 17.790012 15.813344 
19.766680 15.813344 15.813344 
19.766680 17.790012 17.790012 
21.743347 15.813344 17.790012 
21.743347 17.790012 15.813344 
23.720016 15.813344 15.813344 
23.720016 17.790012 17.790012 
25.696684 15.813344 17.790012 
25.696684 17.790012 15.813344 
27.673351 15.813344 15.813344 
27.673351 17.790012 17.790012 
29.650019 15.813344 17.790012 
29.650019 17.790012 15.813344 
31.626688 15.813344 15.813344 
31.626688 17.790012 17.790012 
0.000000 19.766680 15.813344 
1.976668 19.766680 17.790012 
1.976668 21.743347 15.813344 
3.953336 19.766680 15.813344 
3.953336 21.743347 17.790012 
5.930004 19.766680 17.790012 
5.930004 21.743347 15.813344 
7.906672 19.766680 15.813344 
7.906672 21.743347 17.790012 
9.883340 19.766680 17.790012 
9.883340 21.743347 15.813344 
11.860008 19.766680 15.813344 
11.860008 21.743347 17.790012 
13.836677 19.766680 17.790012 
13.836677 21.743347 15.813344 
15.813344 19.766680 15.813344 
15.813344 21.743347 17.790012 
17.790012 19.766680 17.790012 
17.790012 21.743347 15.813344 
19.766680 19.766680 15.813344 
19.766680 21.743347 17.790012 
21.743347 19.766680 17.790012 
21.743347 21.743347 15.813344 
23.720016 19.766680 15.813344 
23.720016 21.743347 17.790012 
25.696684 19.766680 17.790012 
25.696684 21.743347 15.813344 
27.673351 19.766680 15.813344 
27.673351 21.743347 17.790012 
29.650019 19.766680 17.790012 
29.650019 21.743347 15.813344 
31.626688 19.766680 15.813344 
3.953336 23.720016 15.813344 
5.930004 23.720016 17.790012 
5.930004 25.696684 15.813344 
7.906672 23.720016 15.813344 
7.906672 25.696684 17.790012 
9.883340 23.720016 17.790012 
9.883340 25.696684 15.813344 
11.860008 23.720016 15.813344 
11.860008 25.696684 17.790012 
13.836677 23.720016 17.790012 
13.836677 25.696684 15.813344 
15.813344 23.720016 15.813344 
15.813344 25.696684 17.790012 
17.790012 23.720016 17.790012 
17.790012 25.696684 15.813344 
19.766680 23.720016 15.813344 
19.766680 25.696684 17.790012 
21.743347 23.720016 17.790012 
21.743347 25.696684 15.813344 
23.720016 23.720016 15.813344 
23.720016 25.696684 17.790012 
25.696684 23.720016 17.790012 
25.696684 25.696684 15.813344 
27.673351 23.720016 15.813344 
7.906672 27.673351 15.813344 
9.883340 27.673351 17.790012 
9.883340 29.650019 15.813344 
11.860008 27.673351 15.813344 
11.860008 29.650019 17.790012 
13.836677 27.673351 17.790012 
13.836677 29.650019 15.813344 
15.813344 27.673351 15.813344 
15.813344 29.650019 17.790012 
17.790012 27.673351 17.790012 
17.790012 29.650019 15.813344 
19.766680 27.673351 15.813344 
19.766680 29.650019 17.790012 
21.743347 27.673351 17.790012 
21.743347 29.650019 15.813344 
23.720016 27.673351 15.813344 
11.860008 31.626688 15.813344 
13.836677 31.626688 17.790012 
15.813344 31.626688 15.813344 
17.790012 31.626688 17.790012 
19.766680 31.626688 15.813344 
9.883340 1.976668 19.766680 
11.860008 0.000000 19.766680 
11.860008 1.976668 21.743347 
13.836677 1.976668 19.766680 
15.813344 0.000000 19.766680 
15.813344 1.976668 21.743347 
17.790012 1.976668 19.766680 
19.766680 0.000000 19.766680 
19.766680 1.976668 21.743347 
21.743347 1.976668 19.766680 
5.930004 5.930004 19.766680 
7.906672 3.953336 19.766680 
7.906672 5.930004 21.743347 
9.883340 3.953336 21.743347 
9.883340 5.930004 19.766680 
11.860008 3.953336 19.766680 
11.860008 5.930004 21.743347 
13.836677 3.953336 21.743347 
13.836677 5.930004 19.766680 
15.813344 3.953336 19.766680 
15.813344 5.930004 21.743347 
17.790012 3.953336 21.743347 
17.790012 5.930004 19.766680 
19.766680 3.953336 19.766680 
19.766680 5.930004 21.743347 
21.743347 3.953336 21.743347 
21.743347 5.930004 19.766680 
23.720016 3.953336 19.766680 
23.720016 5.930004 21.743347 
25.696684 5.930004 19.766680 
1.976668 9.883340 19.766680 
3.953336 7.906672 19.766680 
3.953336 9.883340 21.743347 
5.930004 7.906672 21.743347 
5.930004 9.883340 19.766680 
7.906672 7.906672 19.766680 
7.906672 9.883340 21.743347 
9.883340 7.906672 21.743347 
9.883340 9.883340 19.766680 
11.860008 7.906672 19.766680 
11.860008 9.883340 21.743347 
13.836677 7.906672 21.743347 
13.836677 9.883340 19.766680 
15.813344 7.906672 19.766680 
15.813344 9.883340 21.743347 
17.790012 7.906672 21.743347 
17.790012 9.883340 19.766680 
19.766680 7.906672 19.766680 
19.766680 9.883340 21.743347 
21.743347 7.906672 21.743347 
21.743347 9.883340 19.766680 
23.720016 7.906672 19.766680 
23.720016 9.883340 21.743347 
25.696684 7.906672 21.743347 
25.696684 9.883340 19.766680 
27.673351 7.906672 19.766680 
27.673351 9.883340 21.743347 
29.650019 9.883340 19.766680 
0.000000 11.860008 19.766680 
1.976668 11.860008 21.743347 
1.976668 13.836677 19.766680 
3.953336 11.860008 19.766680 
3.953336 13.836677 21.743347 
5.930004 11.860008 21.743347 
5.930004 13.836677 19.766680 
7.906672 11.860008 19.766680 
7.906672 13.836677 21.743347 
9.883340 11.860008 21.743347 
9.883340 13.836677 19.766680 
11.860008 11.860008 19.766680 
11.860008 13.836677 21.743347 
13.836677 11.860008 21.743347 
13.836677 13.836677 19.766680 
15.813344 11.860008 19.766680 
15.813344 13.836677 21.743347 
17.790012 11.860008 21.743347 
17.790012 13.836677 19.766680 
19.766680 11.860008 19.766680 
19.766680 13.836677 21.743347 
21.743347 11.860008 21.743347 
21.743347 13.836677 19.766680 
23.720016 11.860008 19.766680 
23.720016 13.836677 21.743347 
25.696684 11.860008 21.743347 
25.696684 13.836677 19.766680 
27.673351 11.860008 19.766680 
27.673351 13.836677 21.743347 
29.650019 11.860008 21.743347 
29.650019 13.836677 19.766680 
31.626688 11.860008 19.766680 
0.000000 15.813344 19.766680 
1.976668 15.813344 21.743347 
1.976668 17.790012 19.766680 
3.953336 15.813344 19.766680 
3.953336 17.790012 21.743347 
5.930004 15.813344 21.743347 
5.930004 17.790012 19.766680 
7.906672 15.813344 19.766680 
7.906672 17.790012 21.743347 
9.883340 15.813344 21.743347 
9.883340 17.790012 19.766680 
11.860008 15.813344 19.766680 
11.860008 17.790012 21.743347 
13.836677 15.813344 21.743347 
13.836677 17.790012 19.766680 
15.813344 15.813344 19.766680 
15.813344 17.790012 21.743347 
17.790012 15.813344 21.743347 
17.790012 17.790012 19.766680 
19.766680 15.813344 19.766680 
19.766680 17.790012 21.743347 
21.743347 15.813344 21.743347 
21.743347 17.790012 19.766680 
23.720016 15.813344 19.766680 
23.720016 17.790012 21.743347 
25.696684 15.813344 21.743347 
25.696684 17.790012 19.766680 
27.673351 15.813344 19.766680 
27.673351 17.790012 21.743347 
29.650019 15.813344 21.743347 
29.650019 17.790012 19.766680 
31.626688 15.813344 19.766680 
0.000000 19.766680 19.766680 
1.976668 19.766680 21.743347 
1.976668 21.743347 19.766680 
3.953336 19.766680 19.766680 
3.953336 21.743347 21.743347 
5.930004 19.766680 21.743347 
5.930004 21.743347 19.766680 
7.906672 19.766680 19.766680 
7.906672 21.743347 21.743347 
9.883340 19.766680 21.743347 
9.883340 21.743347 19.766680 
11.860008 19.766680 19.766680 
11.860008 21.743347 21.743347 
13.836677 19.766680 21.743347 
13.836677 21.743347 19.766680 
15.813344 19.766680 19.766680 
15.813344 21.743347 21.743347 
17.790012 19.766680 21.743347 
17.790012 21.743347 19.766680 
19.766680 19.766680 19.766680 
19.766680 21.743347 21.743347 
21.743347 19.766680 21.743347 
21.743347 21.743347 19.766680 
23.720016 19.766680 19.766680 
23.720016 21.743347 21.743347 
25.696684 19.766680 21.743347 
25.696684 21.743347 19.766680 
27.673351 19.766680 19.766680 
27.673351 21.743347 21.743347 
29.650019 19.766680 21.743347 
29.650019 21.743347 19.766680 
31.626688 19.766680 19.766680 
3.953336 23.720016 19.766680 
5.930004 23.720016 21.743347 
5.930004 25.696684 19.766680 
7.906672 23.720016 19.766680 
7.906672 25.696684 21.743347 
9.883340 23.720016 21.743347 
9.883340 25.696684 19.766680 
11.860008 23.720016 19.766680 
11.860008 25.696684 21.743347 
13.836677 23.720016 21.743347 
13.836677 25.696684 19.766680 
15.813344 23.720016 19.766680 
15.813344 25.696684 21.743347 
17.790012 23.720016 21.743347 
17.790012 25.696684 19.766680 
19.766680 23.720016 19.766680 
19.766680 25.696684 21.743347 
21.743347 23.720016 21.743347 
21.743347 25.696684 19.766680 
23.720016 23.720016 19.766680 
23.720016 25.696684 21.743347 
25.696684 23.720016 21.743347 
25.696684 25.696684 19.766680 
27.673351 23.720016 19.766680 
7.906672 27.673351 19.766680 
9.883340 27.673351 21.743347 
9.883340 29.650019 19.766680 
11.860008 27.673351 19.766680 
11.860008 29.650019 21.743347 
13.836677 27.673351 21.743347 
13.836677 29.650019 19.766680 
15.813344 27.673351 19.766680 
15.813344 29.650019 21.743347 
17.790012 27.673351 21.743347 
17.790012 29.650019 19.766680 
19.766680 27.673351 19.766680 
19.766680 29.650019 21.743347 
21.743347 27.673351 21.743347 
21.743347 29.650019 19.766680 
23.720016 27.673351 19.766680 
11.860008 31.626688 19.766680 
15.813344 31.626688 19.766680 
19.766680 31.626688 19.766680 
5.930004 5.930004 23.720016 
7.906672 3.953336 23.720016 
7.906672 5.930004 25.696684 
9.883340 5.930004 23.720016 
11.860008 3.953336 23.720016 
11.860008 5.930004 25.696684 
13.836677 5.930004 23.720016 
15.813344 3.953336 23.720016 
15.813344 5.930004 25.696684 
17.790012 5.930004 23.720016 
19.766680 3.953336 23.720016 
19.766680 5.930004 25.696684 
21.743347 5.930004 23.720016 
23.720016 3.953336 23.720016 
23.720016 5.930004 25.696684 
25.696684 5.930004 23.720016 
3.953336 7.906672 23.720016 
5.930004 7.906672 25.696684 
5.930004 9.883340 23.720016 
7.906672 7.906672 23.720016 
7.906672 9.883340 25.696684 
9.883340 7.906672 25.696684 
9.883340 9.883340 23.720016 
11.860008 7.906672 23.720016 
11.860008 9.883340 25.696684 
13.836677 7.906672 25.696684 
13.836677 9.883340 23.720016 
15.813344 7.906672 23.720016 
15.813344 9.883340 25.696684 
17.790012 7.906672 25.696684 
17.790012 9.883340 23.720016 
19.766680 7.906672 23.720016 
19.766680 9.883340 25.696684 
21.743347 7.906672 25.696684 
21.743347 9.883340 23.720016 
23.720016 7.906672 23.720016 
23.720016 9.883340 25.696684 
25.696684 7.906672 25.696684 
25.696684 9.883340 23.720016 
27.673351 7.906672 23.720016 
3.953336 11.860008 23.720016 
5.930004 11.860008 25.696684 
5.930004 13.836677 23.720016 
7.906672 11.860008 23.720016 
7.906672 13.836677 25.696684 
9.883340 11.860008 25.696684 
9.883340 13.836677 23.720016 
11.860008 11.860008 23.720016 
11.860008 13.836677 25.696684 
13.836677 11.860008 25.696684 
13.836677 13.836677 23.720016 
15.813344 11.860008 23.720016 
15.813344 13.836677 25.696684 
17.790012 11.860008 25.696684 
17.790012 13.836677 23.720016 
19.766680 11.860008 23.720016 
19.766680 13.836677 25.696684 
21.743347 11.860008 25.696684 
21.743347 13.836677 23.720016 
23.720016 11.860008 23.720016 
23.720016 13.836677 25.696684 
25.696684 11.860008 25.696684 
25.696684 13.836677 23.720016 
27.673351 11.860008 23.720016 
3.953336 15.813344 23.720016 
5.930004 15.813344 25.696684 
5.930004 17.790012 23.720016 
7.906672 15.813344 23.720016 
7.906672 17.790012 25.696684 
9.883340 15.813344 25.696684 
9.883340 17.790012 23.720016 
11.860008 15.813344 23.720016 
11.860008 17.790012 25.696684 
13.836677 15.813344 25.696684 
13.836677 17.790012 23.720016 
15.813344 15.813344 23.720016 
15.813344 17.790012 25.696684 
17.790012 15.813344 25.696684 