Cr2
1.000000
-4.494853 1.204393 1.645231
1.204393 -4.494853 1.645231
0.000000 0.000000 4.935692
Cr 
27 
Selective dynamics
Cartesian
0.602197 -2.247426 0.822616   T T T
-2.247426 0.602197 0.822616   T T T
0.000000 0.000000 0.000000   T T T
0.000000 0.000000 2.467846   T T T
-1.043036 -3.892659 2.467847   T T T
1.204392 -4.494855 1.645232   T T T
1.204392 -4.494855 4.113078   T T T
-3.892659 -1.043036 2.467847   T T T
-1.645231 -1.645231 1.645231   T T T
-1.645231 -1.645231 4.113077   T T T
0.602197 -2.247428 3.290462   T T T
0.602197 -2.247428 5.758308   T T T
-4.494855 1.204392 1.645232   T T T
-4.494855 1.204392 4.113078   T T T
-2.247428 0.602197 3.290462   T T T
-2.247428 0.602197 5.758308   T T T
0.000000 0.000000 4.935693   T T T
-3.290462 -3.290462 3.290462   T T T
-3.290462 -3.290462 5.758308   T T T
-1.043034 -3.892657 4.935693   T T T
-1.043034 -3.892659 7.403540   T T T
1.204392 -4.494853 6.580923   T T T
-3.892657 -1.043034 4.935693   T T T
-3.892659 -1.043034 7.403540   T T T
-1.645230 -1.645230 6.580925   T T T
-4.494853 1.204392 6.580923   T T T
-3.290460 -3.290460 8.226154   T T T
