Ti3
1.000000
4.576855 0.000000 0.000000
-2.288427 3.963673 0.000000
0.000000 0.000000 2.828683
Ti 
3 
Selective dynamics
Cartesian
0.000000 0.000000 0.000000   T T T
-0.000002 2.642450 1.414341   T F T
2.288430 1.321223 1.414341   T F T
