Cr2
1.000000
-4.494853 1.204393 1.645231
1.204393 -4.494853 1.645231
0.000000 0.000000 4.935692
Cr 
8 
Selective dynamics
Cartesian
0.602197 -2.247426 0.822616   T T T
-2.247426 0.602197 0.822616   T T T
0.000000 0.000000 0.000000   T T T
0.000000 0.000000 2.467846   T T T
-1.645231 -1.645231 1.645231   T T T
-1.645231 -1.645231 4.113077   T T T
0.602197 -2.247428 3.290462   T T T
-2.247428 0.602197 3.290462   T T T
