W2
1.000000
7.807530 0.000000 0.000000
0.000000 4.507680 0.000000
0.000000 0.000000 44.165920
W Mo 
48 48 
Cartesian
3.934365 2.305169 22.146303 
0.030594 0.051328 22.144249 
1.330879 2.305169 23.985188 
5.234642 0.051328 23.987244 
6.536386 2.305169 23.067810 
2.632622 0.051328 23.065750 
3.934365 2.305169 24.906673 
0.030594 0.051328 24.904619 
1.330879 2.305169 26.745558 
5.234642 0.051328 26.747614 
6.536386 2.305169 25.828180 
2.632622 0.051328 25.826120 
3.934365 2.305169 27.667044 
0.030594 0.051328 27.664989 
1.330879 2.305169 29.505928 
5.234642 0.051328 29.507984 
6.536386 2.305169 28.588551 
2.632622 0.051328 28.586491 
3.934365 2.305169 30.427414 
0.030594 0.051328 30.425360 
1.330879 2.305169 32.266296 
5.234642 0.051328 32.268356 
6.536386 2.305169 31.348921 
2.632622 0.051328 31.346861 
3.934365 2.305169 33.187782 
0.030594 0.051328 33.185726 
1.330879 2.305169 35.026665 
5.234642 0.051328 35.028725 
6.536386 2.305169 34.109291 
2.632622 0.051328 34.107231 
3.934365 2.305169 35.948154 
0.030594 0.051328 35.946098 
1.330879 2.305169 37.787037 
5.234642 0.051328 37.789097 
6.536386 2.305169 36.869663 
2.632622 0.051328 36.867599 
3.934365 2.305169 38.708523 
0.030594 0.051328 38.706467 
1.330879 2.305169 40.547405 
5.234642 0.051328 40.549465 
6.536386 2.305169 39.630032 
2.632622 0.051328 39.627968 
3.934365 2.305169 41.468895 
0.030594 0.051328 41.466839 
1.330879 2.305169 43.307777 
5.234642 0.051328 43.309837 
6.536386 2.305169 42.390404 
2.632622 0.051328 42.388344 
3.934365 2.305169 0.063343 
0.030594 0.051328 0.061288 
1.330879 2.305169 1.902227 
5.234642 0.051328 1.904284 
6.536386 2.305169 0.984850 
2.632622 0.051328 0.982790 
3.934365 2.305169 2.823713 
0.030594 0.051328 2.821658 
1.330879 2.305169 4.662597 
5.234642 0.051328 4.664654 
6.536386 2.305169 3.745220 
2.632622 0.051328 3.743160 
3.934365 2.305169 5.584083 
0.030594 0.051328 5.582028 
1.330879 2.305169 7.422967 
5.234642 0.051328 7.425024 
6.536386 2.305169 6.505590 
2.632622 0.051328 6.503530 
3.934365 2.305169 8.344453 
0.030594 0.051328 8.342398 
1.330879 2.305169 10.183337 
5.234642 0.051328 10.185394 
6.536386 2.305169 9.265960 
2.632622 0.051328 9.263900 
3.934365 2.305169 11.104823 
0.030594 0.051328 11.102768 
1.330879 2.305169 12.943707 
5.234642 0.051328 12.945765 
6.536386 2.305169 12.026330 
2.632622 0.051328 12.024270 
3.934365 2.305169 13.865193 
0.030594 0.051328 13.863138 
1.330879 2.305169 15.704078 
5.234642 0.051328 15.706135 
6.536386 2.305169 14.786700 
2.632622 0.051328 14.784640 
3.934365 2.305169 16.625563 
0.030594 0.051328 16.623508 
1.330879 2.305169 18.464447 
5.234642 0.051328 18.466503 
6.536386 2.305169 17.547070 
2.632622 0.051328 17.545010 
3.934365 2.305169 19.385933 
0.030594 0.051328 19.383879 
1.330879 2.305169 21.224817 
5.234642 0.051328 21.226873 
6.536386 2.305169 20.307440 
2.632622 0.051328 20.305380 
