Na4 H4 Pd2
1.000000
1.126852 -1.126852 0.000000
0.055258 11.489644 -0.000001
0.000001 0.000001 11.544904
Na H Pd 
12 10 4 
Selective dynamics
Cartesian
0.817595 0.817595 10.091659   T T T
-0.401966 -0.401966 4.078833   T T T
0.800414 4.389963 10.442020   T T T
-0.419147 3.170401 4.429194   T T T
-0.731279 2.858269 7.596457   T T T
0.783233 7.962331 10.792382   T T T
-0.436328 6.742768 4.779555   T T T
-0.748460 6.430636 7.946819   T T T
-0.453509 10.315137 5.129917   T T T
-0.765641 10.003005 8.297180   T T T
-0.470690 13.887507 5.480278   T T T
-0.782822 13.575376 8.647543   T T T
0.131588 7.310684 -0.983205   T T T
0.114407 10.883053 -0.632843   T T T
-0.165950 -0.165950 1.683927   T T T
-0.183131 3.406417 2.034289   T T T
-0.967296 2.622252 9.991363   T T T
-0.200312 6.978785 2.384650   T T T
1.019250 8.198346 8.397476   T T T
-0.217493 10.551152 2.735012   T T T
1.002069 11.770715 8.747838   T T T
-0.234674 14.123522 3.085373   T T T
0.000000 0.000000 0.000000   T T T
-0.017181 3.572367 0.350361   T T T
-0.034362 7.144734 0.700723   T T T
-0.051543 10.717103 1.051084   T T T
