Cr2
1.000000
2.849623 -2.849623 0.000000
1.043034 3.892658 -0.000000
0.000000 0.000000 4.935692
Cr 
2000 
Selective dynamics
Cartesian
-0.000001 -0.000001 -24.678459   T T T
-0.000001 -0.000001 -22.210613   T T T
2.247426 -0.602198 -23.033230   T T T
2.247426 -0.602197 -20.565384   T T T
4.494853 -1.204394 -21.387997   T T T
4.494853 -1.204393 -18.920151   T T T
6.742280 -1.806590 -19.742767   T T T
6.742280 -1.806590 -17.274921   T T T
8.989706 -2.408788 -18.097534   T T T
8.989706 -2.408786 -15.629693   T T T
11.237133 -3.010983 -16.452305   T T T
11.237133 -3.010982 -13.984462   T T T
13.484560 -3.613179 -14.807076   T T T
13.484562 -3.613177 -12.339231   T T T
15.731987 -4.215375 -13.161847   T T T
15.731987 -4.215375 -10.693999   T T T
17.979414 -4.817571 -11.516614   T T T
17.979416 -4.817571 -9.048768   T T T
20.226841 -5.419766 -9.871385   T T T
20.226843 -5.419766 -7.403539   T T T
-0.602198 2.247426 -23.033230   T T T
-0.602197 2.247426 -20.565384   T T T
1.645230 1.645230 -21.388000   T T T
1.645230 1.645230 -18.920151   T T T
3.892657 1.043034 -19.742767   T T T
3.892656 1.043033 -17.274921   T T T
6.140084 0.440837 -18.097538   T T T
6.140084 0.440837 -15.629693   T T T
8.387510 -0.161359 -16.452305   T T T
8.387510 -0.161359 -13.984460   T T T
10.634937 -0.763555 -14.807076   T T T
10.634937 -0.763555 -12.339231   T T T
12.882364 -1.365750 -13.161847   T T T
12.882365 -1.365751 -10.693999   T T T
15.129791 -1.967946 -11.516616   T T T
15.129791 -1.967948 -9.048768   T T T
17.377218 -2.570144 -9.871385   T T T
17.377218 -2.570144 -7.403539   T T T
19.624645 -3.172339 -8.226155   T T T
19.624645 -3.172339 -5.758307   T T T
-1.204394 4.494853 -21.387997   T T T
-1.204393 4.494853 -18.920151   T T T
1.043033 3.892657 -19.742767   T T T
1.043033 3.892656 -17.274921   T T T
3.290462 3.290462 -18.097538   T T T
3.290461 3.290461 -15.629693   T T T
5.537888 2.688265 -16.452305   T T T
5.537888 2.688264 -13.984460   T T T
7.785314 2.086068 -14.807075   T T T
7.785314 2.086068 -12.339231   T T T
10.032742 1.483872 -13.161847   T T T
10.032742 1.483872 -10.694001   T T T
12.280169 0.881677 -11.516614   T T T
12.280169 0.881676 -9.048768   T T T
14.527596 0.279481 -9.871385   T T T
14.527596 0.279479 -7.403539   T T T
16.775021 -0.322716 -8.226155   T T T
16.775023 -0.322717 -5.758309   T T T
19.022449 -0.924911 -6.580922   T T T
19.022449 -0.924912 -4.113076   T T T
-1.806590 6.742280 -19.742767   T T T
-1.806590 6.742280 -17.274921   T T T
0.440837 6.140084 -18.097538   T T T
0.440837 6.140083 -15.629689   T T T
2.688265 5.537888 -16.452305   T T T
2.688264 5.537888 -13.984460   T T T
4.935691 4.935691 -14.807075   T T T
4.935691 4.935691 -12.339231   T T T
7.183118 4.333495 -13.161847   T T T
7.183118 4.333495 -10.693997   T T T
9.430545 3.731299 -11.516614   T T T
9.430545 3.731299 -9.048768   T T T
11.677973 3.129104 -9.871385   T T T
11.677973 3.129103 -7.403539   T T T
13.925399 2.526907 -8.226155   T T T
13.925399 2.526906 -5.758306   T T T
16.172825 1.924711 -6.580924   T T T
16.172827 1.924710 -4.113076   T T T
18.420252 1.322515 -4.935693   T T T
18.420254 1.322515 -2.467847   T T T
-2.408786 8.989706 -18.097538   T T T
-2.408786 8.989706 -15.629689   T T T
-0.161359 8.387510 -16.452305   T T T
-0.161359 8.387510 -13.984460   T T T
2.086068 7.785314 -14.807075   T T T
2.086068 7.785314 -12.339231   T T T
4.333495 7.183118 -13.161847   T T T
4.333495 7.183118 -10.693999   T T T
6.580922 6.580922 -11.516614   T T T
6.580921 6.580921 -9.048768   T T T
8.828348 5.978726 -9.871385   T T T
8.828348 5.978725 -7.403539   T T T
11.075776 5.376530 -8.226155   T T T
11.075777 5.376529 -5.758306   T T T
13.323203 4.774333 -6.580924   T T T
13.323203 4.774333 -4.113076   T T T
15.570629 4.172137 -4.935693   T T T
15.570630 4.172137 -2.467847   T T T
17.818056 3.569942 -3.290463   T T T
17.818056 3.569942 -0.822616   T T T
-3.010983 11.237133 -16.452305   T T T
-3.010982 11.237133 -13.984460   T T T
-0.763555 10.634937 -14.807076   T T T
-0.763555 10.634937 -12.339231   T T T
1.483872 10.032742 -13.161847   T T T
1.483871 10.032741 -10.694001   T T T
3.731299 9.430545 -11.516614   T T T
3.731299 9.430546 -9.048770   T T T
5.978726 8.828348 -9.871385   T T T
5.978725 8.828348 -7.403539   T T T
8.226152 8.226152 -8.226155   T T T
8.226152 8.226152 -5.758309   T T T
10.473580 7.623957 -6.580922   T T T
10.473581 7.623956 -4.113076   T T T
12.721006 7.021760 -4.935693   T T T
12.721007 7.021760 -2.467847   T T T
14.968433 6.419564 -3.290463   T T T
14.968434 6.419564 -0.822618   T T T
17.215860 5.817369 -1.645232   T T T
17.215862 5.817369 0.822614   T T T
-3.613179 13.484560 -14.807076   T T T
-3.613179 13.484561 -12.339231   T T T
-1.365750 12.882364 -13.161847   T T T
-1.365751 12.882365 -10.693999   T T T
0.881677 12.280169 -11.516614   T T T
0.881675 12.280169 -9.048768   T T T
3.129104 11.677973 -9.871385   T T T
3.129103 11.677974 -7.403539   T T T
5.376530 11.075776 -8.226155   T T T
5.376529 11.075777 -5.758306   T T T
7.623957 10.473580 -6.580922   T T T
7.623956 10.473581 -4.113076   T T T
9.871384 9.871384 -4.935693   T T T
9.871385 9.871385 -2.467845   T T T
12.118811 9.269188 -3.290463   T T T
12.118811 9.269189 -0.822616   T T T
14.366236 8.666992 -1.645232   T T T
14.366238 8.666992 0.822615   T T T
16.613665 8.064795 -0.000002   T T T
16.613665 8.064796 2.467846   T T T
-4.215375 15.731987 -13.161847   T T T
-4.215375 15.731987 -10.693999   T T T
-1.967948 15.129791 -11.516614   T T T
-1.967948 15.129791 -9.048768   T T T
0.279481 14.527596 -9.871385   T T T
0.279479 14.527596 -7.403539   T T T
2.526907 13.925399 -8.226155   T T T
2.526906 13.925399 -5.758306   T T T
4.774333 13.323203 -6.580924   T T T
4.774333 13.323203 -4.113076   T T T
7.021760 12.721006 -4.935693   T T T
7.021760 12.721007 -2.467847   T T T
9.269188 12.118811 -3.290463   T T T
9.269189 12.118811 -0.822616   T T T
11.516615 11.516615 -1.645232   T T T
11.516615 11.516615 0.822616   T T T
13.764040 10.914418 -0.000002   T T T
13.764041 10.914418 2.467846   T T T
16.011467 10.312222 1.645229   T T T
16.011469 10.312222 4.113076   T T T
-4.817571 17.979414 -11.516614   T T T
-4.817571 17.979414 -9.048768   T T T
-2.570144 17.377218 -9.871385   T T T
-2.570144 17.377218 -7.403539   T T T
-0.322716 16.775021 -8.226155   T T T
-0.322717 16.775023 -5.758307   T T T
1.924711 16.172825 -6.580924   T T T
1.924710 16.172827 -4.113076   T T T
4.172137 15.570629 -4.935693   T T T
4.172137 15.570630 -2.467847   T T T
6.419564 14.968433 -3.290463   T T T
6.419564 14.968434 -0.822617   T T T
8.666992 14.366236 -1.645232   T T T
8.666992 14.366238 0.822615   T T T
10.914418 13.764040 -0.000002   T T T
10.914418 13.764041 2.467846   T T T
13.161844 13.161844 1.645228   T T T
13.161845 13.161845 4.113076   T T T
15.409272 12.559649 3.290460   T T T
15.409272 12.559649 5.758307   T T T
-5.419766 20.226841 -9.871385   T T T
-5.419766 20.226843 -7.403539   T T T
-3.172339 19.624645 -8.226155   T T T
-3.172339 19.624645 -5.758307   T T T
-0.924911 19.022449 -6.580922   T T T
-0.924912 19.022449 -4.113076   T T T
1.322515 18.420252 -4.935693   T T T
1.322515 18.420254 -2.467847   T T T
3.569942 17.818056 -3.290463   T T T
3.569942 17.818058 -0.822616   T T T
5.817369 17.215860 -1.645232   T T T
5.817368 17.215860 0.822614   T T T
8.064795 16.613665 -0.000002   T T T
8.064796 16.613665 2.467846   T T T
10.312222 16.011467 1.645229   T T T
10.312222 16.011469 4.113076   T T T
12.559649 15.409272 3.290460   T T T
12.559649 15.409272 5.758307   T T T
14.807076 14.807076 4.935690   T T T
14.807076 14.807076 7.403537   T T T
-1.645232 -1.645232 -23.033226   T T T
-1.645231 -1.645231 -20.565384   T T T
0.602195 -2.247430 -21.387997   T T T
0.602195 -2.247428 -18.920151   T T T
2.849624 -2.849624 -19.742767   T T T
2.849623 -2.849624 -17.274921   T T T
5.097050 -3.451821 -18.097534   T T T
5.097050 -3.451819 -15.629689   T T T
7.344476 -4.054017 -16.452305   T T T
7.344476 -4.054017 -13.984460   T T T
9.591903 -4.656213 -14.807076   T T T
9.591903 -4.656213 -12.339231   T T T
11.839331 -5.258409 -13.161845   T T T
11.839332 -5.258409 -10.693997   T T T
14.086757 -5.860604 -11.516614   T T T
14.086758 -5.860604 -9.048768   T T T
16.334183 -6.462800 -9.871385   T T T
16.334185 -6.462800 -7.403539   T T T
18.581610 -7.064996 -8.226153   T T T
18.581612 -7.064996 -5.758307   T T T
-2.247430 0.602195 -21.387997   T T T
-2.247428 0.602195 -18.920151   T T T
-0.000001 -0.000001 -19.742767   T T T
0.000000 0.000000 -17.274921   T T T
2.247427 -0.602197 -18.097534   T T T
2.247426 -0.602197 -15.629689   T T T
4.494853 -1.204393 -16.452305   T T T
4.494853 -1.204392 -13.984460   T T T
6.742280 -1.806588 -14.807076   T T T
6.742280 -1.806588 -12.339231   T T T
8.989707 -2.408786 -13.161845   T T T
8.989707 -2.408784 -10.693999   T T T
11.237135 -3.010982 -11.516614   T T T
11.237135 -3.010982 -9.048768   T T T
13.484561 -3.613177 -9.871385   T T T
13.484561 -3.613177 -7.403539   T T T
15.731988 -4.215375 -8.226153   T T T
15.731989 -4.215375 -5.758307   T T T
17.979414 -4.817571 -6.580922   T T T
17.979416 -4.817571 -4.113076   T T T
-2.849624 2.849624 -19.742767   T T T
-2.849624 2.849623 -17.274921   T T T
-0.602197 2.247427 -18.097534   T T T
-0.602197 2.247426 -15.629691   T T T
1.645230 1.645230 -16.452305   T T T
1.645230 1.645230 -13.984460   T T T
3.892657 1.043035 -14.807076   T T T
3.892657 1.043034 -12.339231   T T T
6.140084 0.440839 -13.161843   T T T
6.140084 0.440838 -10.693997   T T T
8.387510 -0.161358 -11.516614   T T T
8.387510 -0.161358 -9.048770   T T T
10.634939 -0.763555 -9.871385   T T T
10.634939 -0.763555 -7.403537   T T T
12.882365 -1.365750 -8.226151   T T T
12.882365 -1.365750 -5.758307   T T T
15.129791 -1.967946 -6.580922   T T T
15.129792 -1.967946 -4.113076   T T T
17.377218 -2.570142 -4.935693   T T T
17.377218 -2.570144 -2.467847   T T T
-3.451821 5.097050 -18.097534   T T T
-3.451819 5.097050 -15.629689   T T T
-1.204393 4.494853 -16.452305   T T T
-1.204392 4.494853 -13.984460   T T T
1.043035 3.892657 -14.807076   T T T
1.043034 3.892657 -12.339231   T T T
3.290462 3.290462 -13.161843   T T T
3.290461 3.290461 -10.693997   T T T
5.537888 2.688265 -11.516614   T T T
5.537888 2.688265 -9.048768   T T T
7.785315 2.086069 -9.871385   T T T
7.785315 2.086068 -7.403539   T T T
10.032743 1.483872 -8.226151   T T T
10.032743 1.483872 -5.758306   T T T
12.280169 0.881677 -6.580922   T T T
12.280169 0.881677 -4.113076   T T T
14.527596 0.279481 -4.935693   T T T
14.527596 0.279480 -2.467845   T T T
16.775023 -0.322716 -3.290462   T T T
16.775023 -0.322716 -0.822615   T T T
-4.054017 7.344476 -16.452305   T T T
-4.054017 7.344476 -13.984460   T T T
-1.806588 6.742280 -14.807076   T T T
-1.806588 6.742280 -12.339231   T T T
0.440839 6.140084 -13.161843   T T T
0.440837 6.140084 -10.693997   T T T
2.688265 5.537888 -11.516614   T T T
2.688265 5.537888 -9.048768   T T T
4.935692 4.935692 -9.871385   T T T
4.935691 4.935691 -7.403537   T T T
7.183118 4.333495 -8.226153   T T T
7.183118 4.333495 -5.758307   T T T
9.430546 3.731299 -6.580922   T T T
9.430547 3.731299 -4.113076   T T T
11.677972 3.129104 -4.935693   T T T
11.677973 3.129103 -2.467845   T T T
13.925400 2.526907 -3.290462   T T T
13.925400 2.526907 -0.822616   T T T
16.172825 1.924711 -1.645231   T T T
16.172827 1.924710 0.822616   T T T
-4.656213 9.591903 -14.807076   T T T
-4.656213 9.591903 -12.339231   T T T
-2.408786 8.989707 -13.161845   T T T
-2.408784 8.989707 -10.693999   T T T
-0.161358 8.387510 -11.516614   T T T
-0.161359 8.387510 -9.048768   T T T
2.086069 7.785315 -9.871385   T T T
2.086069 7.785315 -7.403539   T T T
4.333495 7.183118 -8.226153   T T T
4.333495 7.183118 -5.758307   T T T
6.580922 6.580922 -6.580922   T T T
6.580922 6.580922 -4.113078   T T T
8.828350 5.978726 -4.935693   T T T
8.828351 5.978725 -2.467847   T T T
11.075776 5.376530 -3.290462   T T T
11.075778 5.376530 -0.822616   T T T
13.323204 4.774334 -1.645231   T T T
13.323204 4.774333 0.822615   T T T
15.570630 4.172137 -0.000001   T T T
15.570631 4.172137 2.467845   T T T
-5.258409 11.839331 -13.161845   T T T
-5.258409 11.839331 -10.693997   T T T
-3.010982 11.237135 -11.516614   T T T
-3.010982 11.237135 -9.048768   T T T
-0.763555 10.634939 -9.871385   T T T
-0.763555 10.634939 -7.403537   T T T
1.483872 10.032743 -8.226151   T T T
1.483872 10.032743 -5.758306   T T T
3.731299 9.430546 -6.580922   T T T
3.731299 9.430547 -4.113076   T T T
5.978726 8.828350 -4.935693   T T T
5.978725 8.828350 -2.467845   T T T
8.226154 8.226154 -3.290462   T T T
8.226154 8.226154 -0.822614   T T T
10.473580 7.623958 -1.645231   T T T
10.473580 7.623958 0.822616   T T T
12.721007 7.021762 0.000000   T T T
12.721007 7.021762 2.467847   T T T
14.968434 6.419566 1.645230   T T T
14.968435 6.419566 4.113077   T T T
-5.860604 14.086757 -11.516614   T T T
-5.860604 14.086758 -9.048768   T T T
-3.613177 13.484561 -9.871385   T T T
-3.613177 13.484561 -7.403539   T T T
-1.365750 12.882365 -8.226151   T T T
-1.365750 12.882365 -5.758307   T T T
0.881677 12.280169 -6.580922   T T T
0.881677 12.280169 -4.113076   T T T
3.129104 11.677972 -4.935693   T T T
3.129103 11.677973 -2.467847   T T T
5.376530 11.075776 -3.290462   T T T
5.376530 11.075777 -0.822616   T T T
7.623958 10.473580 -1.645230   T T T
7.623958 10.473580 0.822616   T T T
9.871384 9.871384 -0.000001   T T T
9.871385 9.871385 2.467846   T T T
12.118812 9.269188 1.645230   T T T
12.118812 9.269189 4.113077   T T T
14.366237 8.666991 3.290461   T T T
14.366238 8.666992 5.758307   T T T
-6.462800 16.334183 -9.871385   T T T
-6.462800 16.334185 -7.403537   T T T
-4.215375 15.731988 -8.226153   T T T
-4.215375 15.731989 -5.758307   T T T
-1.967946 15.129791 -6.580922   T T T
-1.967948 15.129792 -4.113076   T T T
0.279481 14.527596 -4.935693   T T T
0.279480 14.527596 -2.467845   T T T
2.526907 13.925400 -3.290462   T T T
2.526907 13.925400 -0.822616   T T T
4.774334 13.323204 -1.645231   T T T
4.774333 13.323204 0.822616   T T T
7.021761 12.721006 0.000000   T T T
7.021762 12.721007 2.467847   T T T
9.269188 12.118812 1.645230   T T T
9.269189 12.118812 4.113077   T T T
11.516615 11.516615 3.290461   T T T
11.516615 11.516615 5.758307   T T T
13.764041 10.914419 4.935691   T T T
13.764042 10.914419 7.403538   T T T
-7.064996 18.581610 -8.226153   T T T
-7.064996 18.581612 -5.758307   T T T
-4.817571 17.979414 -6.580922   T T T
-4.817571 17.979416 -4.113076   T T T
-2.570142 17.377218 -4.935693   T T T
-2.570144 17.377218 -2.467847   T T T
-0.322716 16.775023 -3.290462   T T T
-0.322716 16.775023 -0.822616   T T T
1.924711 16.172825 -1.645231   T T T
1.924711 16.172827 0.822616   T T T
4.172137 15.570630 -0.000001   T T T
4.172137 15.570631 2.467846   T T T
6.419566 14.968433 1.645230   T T T
6.419566 14.968435 4.113077   T T T
8.666991 14.366237 3.290461   T T T
8.666992 14.366238 5.758307   T T T
10.914419 13.764041 4.935691   T T T
10.914419 13.764042 7.403538   T T T
13.161845 13.161845 6.580921   T T T
13.161846 13.161846 9.048769   T T T
-3.290463 -3.290463 -21.387997   T T T
-3.290462 -3.290462 -18.920151   T T T
-1.043036 -3.892659 -19.742767   T T T
-1.043035 -3.892657 -17.274921   T T T
1.204392 -4.494855 -18.097534   T T T
1.204391 -4.494855 -15.629689   T T T
3.451818 -5.097051 -16.452305   T T T
3.451818 -5.097051 -13.984460   T T T
5.699245 -5.699246 -14.807076   T T T
5.699245 -5.699246 -12.339229   T T T
7.946672 -6.301442 -13.161843   T T T
7.946672 -6.301442 -10.694001   T T T
10.194099 -6.903640 -11.516614   T T T
10.194100 -6.903638 -9.048768   T T T
12.441525 -7.505836 -9.871385   T T T
12.441527 -7.505836 -7.403537   T T T
14.688951 -8.108033 -8.226155   T T T
14.688953 -8.108031 -5.758307   T T T
16.936378 -8.710229 -6.580922   T T T
16.936380 -8.710229 -4.113076   T T T
-3.892659 -1.043036 -19.742767   T T T
-3.892659 -1.043036 -17.274921   T T T
-1.645232 -1.645232 -18.097534   T T T
-1.645231 -1.645231 -15.629689   T T T
0.602196 -2.247428 -16.452305   T T T
0.602195 -2.247428 -13.984460   T T T
2.849623 -2.849624 -14.807076   T T T
2.849623 -2.849624 -12.339231   T T T
5.097049 -3.451819 -13.161843   T T T
5.097049 -3.451819 -10.693997   T T T
7.344476 -4.054017 -11.516614   T T T
7.344476 -4.054017 -9.048768   T T T
9.591904 -4.656213 -9.871385   T T T
9.591905 -4.656213 -7.403537   T T T
11.839330 -5.258409 -8.226153   T T T
11.839332 -5.258409 -5.758306   T T T
14.086756 -5.860604 -6.580922   T T T
14.086758 -5.860604 -4.113076   T T T
16.334183 -6.462800 -4.935693   T T T
16.334185 -6.462800 -2.467847   T T T
-4.494855 1.204392 -18.097534   T T T
-4.494855 1.204391 -15.629689   T T T
-2.247428 0.602196 -16.452305   T T T
-2.247428 0.602196 -13.984460   T T T
-0.000001 -0.000001 -14.807075   T T T
-0.000001 -0.000001 -12.339231   T T T
2.247426 -0.602197 -13.161843   T T T
2.247426 -0.602197 -10.693997   T T T
4.494853 -1.204392 -11.516614   T T T
4.494853 -1.204393 -9.048768   T T T
6.742280 -1.806588 -9.871385   T T T
6.742280 -1.806588 -7.403539   T T T
8.989708 -2.408786 -8.226153   T T T
8.989708 -2.408786 -5.758306   T T T
11.237134 -3.010982 -6.580922   T T T
11.237135 -3.010982 -4.113076   T T T
13.484560 -3.613177 -4.935693   T T T
13.484560 -3.613177 -2.467847   T T T
15.731987 -4.215373 -3.290462   T T T
15.731989 -4.215375 -0.822616   T T T
-5.097051 3.451818 -16.452305   T T T
-5.097051 3.451818 -13.984460   T T T
-2.849626 2.849622 -14.807073   T T T
-2.849624 2.849623 -12.339231   T T T
-0.602197 2.247426 -13.161843   T T T
-0.602197 2.247426 -10.693997   T T T
1.645230 1.645230 -11.516614   T T T
1.645230 1.645230 -9.048768   T T T
3.892656 1.043034 -9.871381   T T T
3.892657 1.043035 -7.403537   T T T
6.140083 0.440838 -8.226151   T T T
6.140083 0.440838 -5.758307   T T T
8.387511 -0.161358 -6.580922   T T T
8.387512 -0.161358 -4.113076   T T T
10.634937 -0.763555 -4.935691   T T T
10.634938 -0.763555 -2.467845   T T T
12.882363 -1.365750 -3.290462   T T T
12.882364 -1.365750 -0.822616   T T T
15.129790 -1.967946 -1.645230   T T T
15.129792 -1.967946 0.822616   T T T
-5.699248 5.699244 -14.807075   T T T
-5.699246 5.699245 -12.339231   T T T
-3.451821 5.097049 -13.161843   T T T
-3.451819 5.097050 -10.694001   T T T
-1.204393 4.494853 -11.516614   T T T
-1.204393 4.494853 -9.048768   T T T
1.043034 3.892656 -9.871381   T T T
1.043035 3.892657 -7.403537   T T T
3.290461 3.290461 -8.226151   T T T
3.290462 3.290462 -5.758307   T T T
5.537888 2.688265 -6.580922   T T T
5.537888 2.688265 -4.113076   T T T
7.785315 2.086068 -4.935691   T T T
7.785316 2.086068 -2.467847   T T T
10.032742 1.483872 -3.290460   T T T
10.032743 1.483872 -0.822616   T T T
12.280168 0.881676 -1.645230   T T T
12.280169 0.881677 0.822615   T T T
14.527595 0.279480 0.000000   T T T
14.527596 0.279480 2.467845   T T T
-6.301442 7.946672 -13.161843   T T T
-6.301442 7.946671 -10.693997   T T T
-4.054017 7.344476 -11.516614   T T T
-4.054017 7.344476 -9.048768   T T T
-1.806588 6.742280 -9.871385   T T T
-1.806590 6.742280 -7.403539   T T T
0.440838 6.140083 -8.226151   T T T
0.440838 6.140083 -5.758307   T T T
2.688265 5.537888 -6.580922   T T T
2.688265 5.537888 -4.113076   T T T
4.935691 4.935691 -4.935693   T T T
4.935691 4.935691 -2.467847   T T T
7.183119 4.333495 -3.290460   T T T
7.183120 4.333495 -0.822616   T T T
9.430546 3.731299 -1.645230   T T T
9.430547 3.731299 0.822616   T T T
11.677972 3.129103 0.000000   T T T
11.677973 3.129103 2.467845   T T T
13.925399 2.526906 1.645230   T T T
13.925400 2.526907 4.113076   T T T
-6.903640 10.194099 -11.516614   T T T
-6.903638 10.194100 -9.048768   T T T
-4.656213 9.591904 -9.871383   T T T
-4.656213 9.591905 -7.403537   T T T
-2.408786 8.989707 -8.226151   T T T
-2.408786 8.989708 -5.758306   T T T
-0.161358 8.387511 -6.580922   T T T
-0.161358 8.387512 -4.113076   T T T
2.086068 7.785315 -4.935691   T T T
2.086068 7.785316 -2.467847   T T T
4.333495 7.183119 -3.290460   T T T
4.333495 7.183120 -0.822616   T T T
6.580923 6.580923 -1.645229   T T T
6.580923 6.580923 0.822616   T T T
8.828349 5.978726 0.000001   T T T
8.828350 5.978727 2.467847   T T T
11.075775 5.376531 1.645230   T T T
11.075775 5.376531 4.113076   T T T
13.323202 4.774335 3.290462   T T T
13.323204 4.774335 5.758307   T T T
-7.505836 12.441525 -9.871383   T T T
-7.505836 12.441527 -7.403537   T T T
-5.258409 11.839330 -8.226151   T T T
-5.258409 11.839332 -5.758306   T T T
-3.010982 11.237134 -6.580922   T T T
-3.010982 11.237135 -4.113076   T T T
-0.763555 10.634937 -4.935691   T T T
-0.763555 10.634938 -2.467845   T T T
1.483872 10.032742 -3.290460   T T T
1.483872 10.032743 -0.822616   T T T
3.731299 9.430546 -1.645230   T T T
3.731299 9.430547 0.822616   T T T
5.978726 8.828349 0.000001   T T T
5.978727 8.828350 2.467847   T T T
8.226153 8.226153 1.645231   T T T
8.226154 8.226154 4.113077   T T T
10.473578 7.623957 3.290462   T T T
10.473579 7.623958 5.758307   T T T
12.721005 7.021761 4.935692   T T T
12.721007 7.021762 7.403538   T T T
-8.108033 14.688951 -8.226151   T T T
-8.108031 14.688953 -5.758307   T T T
-5.860604 14.086756 -6.580922   T T T
-5.860604 14.086758 -4.113076   T T T
-3.613177 13.484560 -4.935691   T T T
-3.613177 13.484560 -2.467847   T T T
-1.365750 12.882363 -3.290462   T T T
-1.365750 12.882364 -0.822616   T T T
0.881676 12.280168 -1.645230   T T T
0.881677 12.280169 0.822615   T T T
3.129103 11.677972 0.000000   T T T
3.129103 11.677973 2.467845   T T T
5.376531 11.075775 1.645230   T T T
5.376531 11.075775 4.113076   T T T
7.623957 10.473578 3.290462   T T T
7.623958 10.473579 5.758307   T T T
9.871383 9.871383 4.935692   T T T
9.871384 9.871384 7.403537   T T T
12.118810 9.269187 6.580922   T T T
12.118812 9.269188 9.048768   T T T
-8.710229 16.936378 -6.580922   T T T
-8.710229 16.936380 -4.113076   T T T
-6.462800 16.334183 -4.935693   T T T
-6.462800 16.334185 -2.467847   T T T
-4.215375 15.731986 -3.290460   T T T
-4.215375 15.731989 -0.822616   T T T
-1.967946 15.129790 -1.645230   T T T
-1.967946 15.129792 0.822616   T T T
0.279480 14.527595 0.000000   T T T
0.279480 14.527596 2.467845   T T T
2.526906 13.925399 1.645230   T T T
2.526907 13.925400 4.113076   T T T
4.774335 13.323203 3.290462   T T T
4.774335 13.323204 5.758307   T T T
7.021761 12.721005 4.935692   T T T
7.021762 12.721007 7.403538   T T T
9.269187 12.118810 6.580922   T T T
9.269188 12.118812 9.048768   T T T
11.516614 11.516614 8.226152   T T T
11.516616 11.516616 10.693998   T T T
-4.935693 -4.935693 -19.742764   T T T
-4.935693 -4.935693 -17.274921   T T T
-2.688266 -5.537889 -18.097534   T T T
-2.688266 -5.537889 -15.629689   T T T
-0.440839 -6.140086 -16.452305   T T T
-0.440839 -6.140084 -13.984460   T T T
1.806588 -6.742282 -14.807076   T T T
1.806588 -6.742282 -12.339231   T T T
4.054015 -7.344480 -13.161843   T T T
4.054015 -7.344478 -10.693997   T T T
6.301441 -7.946675 -11.516614   T T T
6.301442 -7.946673 -9.048768   T T T
8.548869 -8.548871 -9.871385   T T T
8.548869 -8.548871 -7.403537   T T T
10.796296 -9.151067 -8.226151   T T T
10.796296 -9.151067 -5.758306   T T T
13.043722 -9.753263 -6.580922   T T T
13.043724 -9.753263 -4.113076   T T T
15.291149 -10.355458 -4.935693   T T T
15.291151 -10.355458 -2.467845   T T T
-5.537889 -2.688266 -18.097534   T T T
-5.537889 -2.688266 -15.629689   T T T
-3.290463 -3.290463 -16.452305   T T T
-3.290462 -3.290462 -13.984460   T T T
-1.043035 -3.892659 -14.807076   T T T
-1.043036 -3.892659 -12.339229   T T T
1.204392 -4.494855 -13.161843   T T T
1.204392 -4.494855 -10.693997   T T T
3.451818 -5.097051 -11.516614   T T T
3.451819 -5.097051 -9.048768   T T T
5.699245 -5.699246 -9.871385   T T T
5.699245 -5.699246 -7.403539   T T T
7.946673 -6.301444 -8.226151   T T T
7.946673 -6.301442 -5.758306   T T T
10.194099 -6.903640 -6.580922   T T T
10.194100 -6.903638 -4.113076   T T T
12.441525 -7.505836 -4.935693   T T T
12.441528 -7.505834 -2.467845   T T T
14.688953 -8.108031 -3.290462   T T T
14.688955 -8.108029 -0.822615   T T T
-6.140086 -0.440839 -16.452305   T T T
-6.140084 -0.440839 -13.984460   T T T
-3.892659 -1.043035 -14.807076   T T T
-3.892657 -1.043035 -12.339231   T T T
-1.645231 -1.645231 -13.161843   T T T
-1.645231 -1.645231 -10.693999   T T T
0.602196 -2.247426 -11.516614   T T T
0.602196 -2.247428 -9.048768   T T T
2.849622 -2.849624 -9.871385   T T T
2.849623 -2.849624 -7.403539   T T T
5.097049 -3.451819 -8.226151   T T T
5.097049 -3.451819 -5.758307   T T T
7.344477 -4.054017 -6.580922   T T T
7.344478 -4.054017 -4.113076   T T T
9.591904 -4.656213 -4.935691   T T T
9.591905 -4.656213 -2.467845   T T T
11.839330 -5.258409 -3.290462   T T T
11.839332 -5.258409 -0.822615   T T T
14.086757 -5.860604 -1.645230   T T T
14.086759 -5.860604 0.822616   T T T
-6.742282 1.806588 -14.807076   T T T
-6.742282 1.806588 -12.339231   T T T
-4.494855 1.204392 -13.161843   T T T
-4.494855 1.204392 -10.693997   T T T
-2.247426 0.602196 -11.516614   T T T
-2.247428 0.602196 -9.048768   T T T
-0.000001 -0.000001 -9.871385   T T T
0.000000 0.000000 -7.403537   T T T
2.247426 -0.602197 -8.226151   T T T
2.247426 -0.602197 -5.758307   T T T
4.494853 -1.204392 -6.580922   T T T
4.494853 -1.204392 -4.113076   T T T
6.742280 -1.806588 -4.935691   T T T
6.742282 -1.806588 -2.467845   T T T
8.989707 -2.408784 -3.290462   T T T
8.989708 -2.408784 -0.822615   T T T
11.237134 -3.010980 -1.645230   T T T
11.237135 -3.010982 0.822616   T T T
13.484561 -3.613177 0.000000   T T T
13.484562 -3.613177 2.467847   T T T
-7.344480 4.054015 -13.161843   T T T
-7.344478 4.054015 -10.693997   T T T
-5.097051 3.451818 -11.516614   T T T
-5.097051 3.451818 -9.048768   T T T
-2.849624 2.849622 -9.871385   T T T
-2.849624 2.849623 -7.403537   T T T
-0.602197 2.247426 -8.226151   T T T
-0.602197 2.247426 -5.758306   T T T
1.645230 1.645230 -6.580922   T T T
1.645230 1.645230 -4.113076   T T T
3.892657 1.043035 -4.935693   T T T
3.892657 1.043035 -2.467845   T T T
6.140084 0.440838 -3.290460   T T T
6.140085 0.440838 -0.822615   T T T
8.387511 -0.161358 -1.645230   T T T
8.387511 -0.161359 0.822617   T T T
10.634938 -0.763555 0.000000   T T T
10.634939 -0.763555 2.467847   T T T
12.882364 -1.365750 1.645230   T T T
12.882366 -1.365750 4.113077   T T T
-7.946675 6.301441 -11.516614   T T T
-7.946673 6.301441 -9.048768   T T T
-5.699246 5.699245 -9.871385   T T T
-5.699246 5.699245 -7.403539   T T T
-3.451819 5.097049 -8.226151   T T T
-3.451819 5.097049 -5.758307   T T T
-1.204392 4.494853 -6.580922   T T T
-1.204392 4.494853 -4.113076   T T T
1.043035 3.892657 -4.935693   T T T
1.043035 3.892657 -2.467847   T T T
3.290461 3.290461 -3.290462   T T T
3.290462 3.290462 -0.822616   T T T
5.537889 2.688264 -1.645230   T T T
5.537889 2.688264 0.822616   T T T
7.785315 2.086068 0.000000   T T T
7.785316 2.086068 2.467847   T T T
10.032742 1.483872 1.645230   T T T
10.032743 1.483872 4.113077   T T T
12.280169 0.881677 3.290462   T T T
12.280170 0.881677 5.758307   T T T
-8.548871 8.548868 -9.871381   T T T
-8.548871 8.548869 -7.403537   T T T
-6.301442 7.946673 -8.226151   T T T
-6.301442 7.946673 -5.758306   T T T
-4.054017 7.344477 -6.580922   T T T
-4.054017 7.344478 -4.113076   T T T
-1.806588 6.742280 -4.935691   T T T
-1.806588 6.742281 -2.467845   T T T
0.440838 6.140084 -3.290460   T T T
0.440838 6.140085 -0.822615   T T T
2.688264 5.537889 -1.645230   T T T
2.688264 5.537889 0.822617   T T T
4.935692 4.935692 0.000001   T T T
4.935693 4.935693 2.467848   T T T
7.183119 4.333496 1.645231   T T T
7.183119 4.333497 4.113078   T T T
9.430545 3.731299 3.290462   T T T
9.430546 3.731300 5.758308   T T T
11.677973 3.129104 4.935693   T T T
11.677974 3.129105 7.403539   T T T
-9.151067 10.796296 -8.226151   T T T
-9.151067 10.796296 -5.758306   T T T
-6.903640 10.194099 -6.580922   T T T
-6.903638 10.194100 -4.113076   T T T
-4.656213 9.591904 -4.935691   T T T
-4.656213 9.591905 -2.467845   T T T
-2.408784 8.989707 -3.290460   T T T
-2.408784 8.989707 -0.822615   T T T
-0.161359 8.387511 -1.645230   T T T
-0.161358 8.387511 0.822616   T T T
2.086068 7.785315 0.000000   T T T
2.086068 7.785316 2.467847   T T T
4.333496 7.183119 1.645231   T T T
4.333497 7.183119 4.113078   T T T
6.580923 6.580923 3.290462   T T T
6.580923 6.580923 5.758308   T T T
8.828349 5.978726 4.935692   T T T
8.828350 5.978727 7.403539   T T T
11.075776 5.376531 6.580923   T T T
11.075777 5.376531 9.048769   T T T
-9.753263 13.043722 -6.580922   T T T
-9.753263 13.043724 -4.113076   T T T
-7.505836 12.441525 -4.935693   T T T
-7.505834 12.441528 -2.467845   T T T
-5.258409 11.839330 -3.290462   T T T
-5.258409 11.839331 -0.822615   T T T
-3.010982 11.237134 -1.645230   T T T
-3.010982 11.237135 0.822617   T T T
-0.763555 10.634938 0.000000   T T T
-0.763555 10.634939 2.467847   T T T
1.483872 10.032742 1.645230   T T T
1.483872 10.032743 4.113077   T T T
3.731300 9.430545 3.290462   T T T
3.731300 9.430546 5.758308   T T T
5.978726 8.828349 4.935692   T T T
5.978727 8.828350 7.403539   T T T
8.226153 8.226153 6.580922   T T T
8.226154 8.226154 9.048769   T T T
10.473580 7.623957 8.226152   T T T
10.473581 7.623959 10.694000   T T T
-10.355458 15.291149 -4.935693   T T T
-10.355458 15.291151 -2.467845   T T T
-8.108031 14.688953 -3.290462   T T T
-8.108029 14.688955 -0.822615   T T T
-5.860604 14.086757 -1.645230   T T T
-5.860604 14.086759 0.822616   T T T
-3.613177 13.484560 0.000001   T T T
-3.613177 13.484562 2.467847   T T T
-1.365750 12.882364 1.645230   T T T
-1.365750 12.882366 4.113077   T T T
0.881677 12.280169 3.290462   T T T
0.881677 12.280170 5.758307   T T T
3.129104 11.677973 4.935692   T T T
3.129105 11.677974 7.403539   T T T
5.376531 11.075776 6.580923   T T T
5.376531 11.075777 9.048769   T T T
7.623957 10.473580 8.226152   T T T
7.623959 10.473581 10.694000   T T T
9.871384 9.871384 9.871384   T T T
9.871386 9.871386 12.339231   T T T
-6.580924 -6.580924 -18.097534   T T T
-6.580924 -6.580924 -15.629689   T T T