Na4 Cl4
1.000000
56.916939 0.000000 0.000000
0.000000 56.916939 0.000000
0.000000 0.000000 56.916939
Na Cl 
1826 1829 
Cartesian
0.000000 0.000000 0.000000 
0.000000 2.845846 2.845846 
2.845846 0.000000 2.845846 
2.845846 2.845846 0.000000 
5.691694 0.000000 0.000000 
5.691694 2.845846 2.845846 
8.537540 0.000000 2.845846 
8.537540 2.845846 0.000000 
11.383389 0.000000 0.000000 
11.383389 2.845846 2.845846 
14.229235 0.000000 2.845846 
14.229235 2.845846 0.000000 
17.075081 0.000000 0.000000 
17.075081 2.845846 2.845846 
19.920927 0.000000 2.845846 
19.920927 2.845846 0.000000 
22.766775 0.000000 0.000000 
22.766775 2.845846 2.845846 
25.612621 0.000000 2.845846 
25.612621 2.845846 0.000000 
28.458469 0.000000 0.000000 
28.458469 2.845846 2.845846 
31.304316 0.000000 2.845846 
31.304316 2.845846 0.000000 
34.150162 0.000000 0.000000 
34.150162 2.845846 2.845846 
36.996010 0.000000 2.845846 
36.996010 2.845846 0.000000 
39.841858 0.000000 0.000000 
39.841858 2.845846 2.845846 
42.687706 0.000000 2.845846 
42.687706 2.845846 0.000000 
45.533550 0.000000 0.000000 
45.533550 2.845846 2.845846 
48.379398 0.000000 2.845846 
48.379398 2.845846 0.000000 
51.225243 0.000000 0.000000 
51.225243 2.845846 2.845846 
54.071091 0.000000 2.845846 
54.071091 2.845846 0.000000 
0.000000 5.691694 0.000000 
0.000000 8.537540 2.845846 
2.845846 5.691694 2.845846 
2.845846 8.537540 0.000000 
5.691694 5.691694 0.000000 
5.691694 8.537540 2.845846 
8.537540 5.691694 2.845846 
8.537540 8.537540 0.000000 
11.383389 5.691694 0.000000 
11.383389 8.537540 2.845846 
14.229235 5.691694 2.845846 
14.229235 8.537540 0.000000 
17.075081 5.691694 0.000000 
17.075081 8.537540 2.845846 
19.920927 5.691694 2.845846 
19.920927 8.537540 0.000000 
22.766775 5.691694 0.000000 
22.766775 8.537540 2.845846 
25.612621 5.691694 2.845846 
25.612621 8.537540 0.000000 
28.458469 5.691694 0.000000 
28.458469 8.537540 2.845846 
31.304316 5.691694 2.845846 
31.304316 8.537540 0.000000 
34.150162 5.691694 0.000000 
34.150162 8.537540 2.845846 
36.996010 5.691694 2.845846 
36.996010 8.537540 0.000000 
39.841858 5.691694 0.000000 
39.841858 8.537540 2.845846 
42.687706 5.691694 2.845846 
42.687706 8.537540 0.000000 
45.533550 5.691694 0.000000 
45.533550 8.537540 2.845846 
48.379398 5.691694 2.845846 
48.379398 8.537540 0.000000 
51.225243 5.691694 0.000000 
51.225243 8.537540 2.845846 
54.071091 5.691694 2.845846 
54.071091 8.537540 0.000000 
0.000000 11.383389 0.000000 
0.000000 14.229235 2.845846 
2.845846 11.383389 2.845846 
2.845846 14.229235 0.000000 
5.691694 11.383389 0.000000 
5.691694 14.229235 2.845846 
8.537540 11.383389 2.845846 
8.537540 14.229235 0.000000 
11.383389 11.383389 0.000000 
11.383389 14.229235 2.845846 
14.229235 11.383389 2.845846 
14.229235 14.229235 0.000000 
17.075081 11.383389 0.000000 
17.075081 14.229235 2.845846 
19.920927 11.383389 2.845846 
19.920927 14.229235 0.000000 
22.766775 11.383389 0.000000 
22.766775 14.229235 2.845846 
25.612621 11.383389 2.845846 
25.612621 14.229235 0.000000 
28.458469 11.383389 0.000000 
28.458469 14.229235 2.845846 
31.304316 11.383389 2.845846 
31.304316 14.229235 0.000000 
34.150162 11.383389 0.000000 
34.150162 14.229235 2.845846 
36.996010 11.383389 2.845846 
36.996010 14.229235 0.000000 
39.841858 11.383389 0.000000 
39.841858 14.229235 2.845846 
42.687706 11.383389 2.845846 
42.687706 14.229235 0.000000 
45.533550 11.383389 0.000000 
45.533550 14.229235 2.845846 
48.379398 11.383389 2.845846 
48.379398 14.229235 0.000000 
51.225243 11.383389 0.000000 
51.225243 14.229235 2.845846 
54.071091 11.383389 2.845846 
54.071091 14.229235 0.000000 
0.000000 17.075081 0.000000 
0.000000 19.920927 2.845846 
2.845846 17.075081 2.845846 
2.845846 19.920927 0.000000 
5.691694 17.075081 0.000000 
5.691694 19.920927 2.845846 
8.537540 17.075081 2.845846 
8.537540 19.920927 0.000000 
11.383389 17.075081 0.000000 
11.383389 19.920927 2.845846 
14.229235 17.075081 2.845846 
14.229235 19.920927 0.000000 
17.075081 17.075081 0.000000 
17.075081 19.920927 2.845846 
19.920927 17.075081 2.845846 
19.920927 19.920927 0.000000 
22.766775 17.075081 0.000000 
22.766775 19.920927 2.845846 
25.612621 17.075081 2.845846 
25.612621 19.920927 0.000000 
28.458469 17.075081 0.000000 
28.458469 19.920927 2.845846 
31.304316 17.075081 2.845846 
31.304316 19.920927 0.000000 
34.150162 17.075081 0.000000 
34.150162 19.920927 2.845846 
36.996010 17.075081 2.845846 
36.996010 19.920927 0.000000 
39.841858 17.075081 0.000000 
39.841858 19.920927 2.845846 
42.687706 17.075081 2.845846 
42.687706 19.920927 0.000000 
45.533550 17.075081 0.000000 
45.533550 19.920927 2.845846 
48.379398 17.075081 2.845846 
48.379398 19.920927 0.000000 
51.225243 17.075081 0.000000 
51.225243 19.920927 2.845846 
54.071091 17.075081 2.845846 
54.071091 19.920927 0.000000 
0.000000 22.766775 0.000000 
0.000000 25.612621 2.845846 
2.845846 22.766775 2.845846 
2.845846 25.612621 0.000000 
5.691694 22.766775 0.000000 
5.691694 25.612621 2.845846 
8.537540 22.766775 2.845846 
8.537540 25.612621 0.000000 
11.383389 22.766775 0.000000 
11.383389 25.612621 2.845846 
14.229235 22.766775 2.845846 
14.229235 25.612621 0.000000 
17.075081 22.766775 0.000000 
17.075081 25.612621 2.845846 
19.920927 22.766775 2.845846 
19.920927 25.612621 0.000000 
22.766775 22.766775 0.000000 
22.766775 25.612621 2.845846 
25.612621 22.766775 2.845846 
25.612621 25.612621 0.000000 
28.458469 22.766775 0.000000 
28.458469 25.612621 2.845846 
31.304316 22.766775 2.845846 
31.304316 25.612621 0.000000 
34.150162 22.766775 0.000000 
34.150162 25.612621 2.845846 
36.996010 22.766775 2.845846 
36.996010 25.612621 0.000000 
39.841858 22.766775 0.000000 
39.841858 25.612621 2.845846 
42.687706 22.766775 2.845846 
42.687706 25.612621 0.000000 
45.533550 22.766775 0.000000 
45.533550 25.612621 2.845846 
48.379398 22.766775 2.845846 
48.379398 25.612621 0.000000 
51.225243 22.766775 0.000000 
51.225243 25.612621 2.845846 
54.071091 22.766775 2.845846 
54.071091 25.612621 0.000000 
0.000000 28.458469 0.000000 
0.000000 31.304316 2.845846 
2.845846 28.458469 2.845846 
2.845846 31.304316 0.000000 
5.691694 28.458469 0.000000 
5.691694 31.304316 2.845846 
8.537540 28.458469 2.845846 
8.537540 31.304316 0.000000 
11.383389 28.458469 0.000000 
11.383389 31.304316 2.845846 
14.229235 28.458469 2.845846 
14.229235 31.304316 0.000000 
17.075081 28.458469 0.000000 
17.075081 31.304316 2.845846 
19.920927 28.458469 2.845846 
19.920927 31.304316 0.000000 
22.766775 28.458469 0.000000 
22.766775 31.304316 2.845846 
25.612621 28.458469 2.845846 
25.612621 31.304316 0.000000 
28.458469 28.458469 0.000000 
28.458469 31.304316 2.845846 
31.304316 28.458469 2.845846 
31.304316 31.304316 0.000000 
34.150162 28.458469 0.000000 
34.150162 31.304316 2.845846 
36.996010 28.458469 2.845846 
36.996010 31.304316 0.000000 
39.841858 28.458469 0.000000 
39.841858 31.304316 2.845846 
42.687706 28.458469 2.845846 
42.687706 31.304316 0.000000 
45.533550 28.458469 0.000000 
45.533550 31.304316 2.845846 
48.379398 28.458469 2.845846 
48.379398 31.304316 0.000000 
51.225243 28.458469 0.000000 
51.225243 31.304316 2.845846 
54.071091 28.458469 2.845846 
54.071091 31.304316 0.000000 
0.000000 34.150162 0.000000 
0.000000 36.996010 2.845846 
2.845846 34.150162 2.845846 
2.845846 36.996010 0.000000 
5.691694 34.150162 0.000000 
5.691694 36.996010 2.845846 
8.537540 34.150162 2.845846 
8.537540 36.996010 0.000000 
11.383389 34.150162 0.000000 
11.383389 36.996010 2.845846 
14.229235 34.150162 2.845846 
14.229235 36.996010 0.000000 
17.075081 34.150162 0.000000 
17.075081 36.996010 2.845846 
19.920927 34.150162 2.845846 
19.920927 36.996010 0.000000 
22.766775 34.150162 0.000000 
22.766775 36.996010 2.845846 
25.612621 34.150162 2.845846 
25.612621 36.996010 0.000000 
28.458469 34.150162 0.000000 
28.458469 36.996010 2.845846 
31.304316 34.150162 2.845846 
31.304316 36.996010 0.000000 
34.150162 34.150162 0.000000 
34.150162 36.996010 2.845846 
36.996010 34.150162 2.845846 
36.996010 36.996010 0.000000 
39.841858 34.150162 0.000000 
39.841858 36.996010 2.845846 
42.687706 34.150162 2.845846 
42.687706 36.996010 0.000000 
45.533550 34.150162 0.000000 
45.533550 36.996010 2.845846 
48.379398 34.150162 2.845846 
48.379398 36.996010 0.000000 
51.225243 34.150162 0.000000 
51.225243 36.996010 2.845846 
54.071091 34.150162 2.845846 
54.071091 36.996010 0.000000 
0.000000 39.841858 0.000000 
0.000000 42.687706 2.845846 
2.845846 39.841858 2.845846 
2.845846 42.687706 0.000000 
5.691694 39.841858 0.000000 
5.691694 42.687706 2.845846 
8.537540 39.841858 2.845846 
8.537540 42.687706 0.000000 
11.383389 39.841858 0.000000 
11.383389 42.687706 2.845846 
14.229235 39.841858 2.845846 
14.229235 42.687706 0.000000 
17.075081 39.841858 0.000000 
17.075081 42.687706 2.845846 
19.920927 39.841858 2.845846 
19.920927 42.687706 0.000000 
22.766775 39.841858 0.000000 
22.766775 42.687706 2.845846 
25.612621 39.841858 2.845846 
25.612621 42.687706 0.000000 
28.458469 39.841858 0.000000 
28.458469 42.687706 2.845846 
31.304316 39.841858 2.845846 
31.304316 42.687706 0.000000 
34.150162 39.841858 0.000000 
34.150162 42.687706 2.845846 
36.996010 39.841858 2.845846 
36.996010 42.687706 0.000000 
39.841858 39.841858 0.000000 
39.841858 42.687706 2.845846 
42.687706 39.841858 2.845846 
42.687706 42.687706 0.000000 
45.533550 39.841858 0.000000 
45.533550 42.687706 2.845846 
48.379398 39.841858 2.845846 
48.379398 42.687706 0.000000 
51.225243 39.841858 0.000000 
51.225243 42.687706 2.845846 
54.071091 39.841858 2.845846 
54.071091 42.687706 0.000000 
0.000000 45.533550 0.000000 
0.000000 48.379398 2.845846 
2.845846 45.533550 2.845846 
2.845846 48.379398 0.000000 
5.691694 45.533550 0.000000 
5.691694 48.379398 2.845846 
8.537540 45.533550 2.845846 
8.537540 48.379398 0.000000 
11.383389 45.533550 0.000000 
11.383389 48.379398 2.845846 
14.229235 45.533550 2.845846 
14.229235 48.379398 0.000000 
17.075081 45.533550 0.000000 
17.075081 48.379398 2.845846 
19.920927 45.533550 2.845846 
19.920927 48.379398 0.000000 
22.766775 45.533550 0.000000 
22.766775 48.379398 2.845846 
25.612621 45.533550 2.845846 
25.612621 48.379398 0.000000 
28.458469 45.533550 0.000000 
28.458469 48.379398 2.845846 
31.304316 45.533550 2.845846 
31.304316 48.379398 0.000000 
34.150162 45.533550 0.000000 
34.150162 48.379398 2.845846 
36.996010 45.533550 2.845846 
36.996010 48.379398 0.000000 
39.841858 45.533550 0.000000 
39.841858 48.379398 2.845846 
42.687706 45.533550 2.845846 
42.687706 48.379398 0.000000 
45.533550 45.533550 0.000000 
45.533550 48.379398 2.845846 
48.379398 45.533550 2.845846 
48.379398 48.379398 0.000000 
51.225243 45.533550 0.000000 
51.225243 48.379398 2.845846 
54.071091 45.533550 2.845846 
54.071091 48.379398 0.000000 
0.000000 51.225243 0.000000 
0.000000 54.071091 2.845846 
2.845846 51.225243 2.845846 
2.845846 54.071091 0.000000 
5.691694 51.225243 0.000000 
5.691694 54.071091 2.845846 
8.537540 51.225243 2.845846 
8.537540 54.071091 0.000000 
11.383389 51.225243 0.000000 
11.383389 54.071091 2.845846 
14.229235 51.225243 2.845846 
14.229235 54.071091 0.000000 
17.075081 51.225243 0.000000 
17.075081 54.071091 2.845846 
19.920927 51.225243 2.845846 
19.920927 54.071091 0.000000 
22.766775 51.225243 0.000000 
22.766775 54.071091 2.845846 
25.612621 51.225243 2.845846 
25.612621 54.071091 0.000000 
28.458469 51.225243 0.000000 
28.458469 54.071091 2.845846 
31.304316 51.225243 2.845846 
31.304316 54.071091 0.000000 
34.150162 51.225243 0.000000 
34.150162 54.071091 2.845846 
36.996010 51.225243 2.845846 
36.996010 54.071091 0.000000 
39.841858 51.225243 0.000000 
39.841858 54.071091 2.845846 
42.687706 51.225243 2.845846 
42.687706 54.071091 0.000000 
45.533550 51.225243 0.000000 
45.533550 54.071091 2.845846 
48.379398 51.225243 2.845846 
48.379398 54.071091 0.000000 
51.225243 51.225243 0.000000 
51.225243 54.071091 2.845846 
54.071091 51.225243 2.845846 
54.071091 54.071091 0.000000 
0.000000 0.000000 5.691694 
0.000000 2.845846 8.537540 
2.845846 0.000000 8.537540 
2.845846 2.845846 5.691694 
5.691694 0.000000 5.691694 
5.691694 2.845846 8.537540 
8.537540 0.000000 8.537540 
8.537540 2.845846 5.691694 
11.383389 0.000000 5.691694 
11.383389 2.845846 8.537540 
14.229235 0.000000 8.537540 
14.229235 2.845846 5.691694 
17.075081 0.000000 5.691694 
17.075081 2.845846 8.537540 
19.920927 0.000000 8.537540 
19.920927 2.845846 5.691694 
22.766775 0.000000 5.691694 
22.766775 2.845846 8.537540 
25.612621 0.000000 8.537540 
25.612621 2.845846 5.691694 
28.458469 0.000000 5.691694 
28.458469 2.845846 8.537540 
31.304316 0.000000 8.537540 
31.304316 2.845846 5.691694 
34.150162 0.000000 5.691694 
34.150162 2.845846 8.537540 
36.996010 0.000000 8.537540 
36.996010 2.845846 5.691694 
39.841858 0.000000 5.691694 
39.841858 2.845846 8.537540 
42.687706 0.000000 8.537540 
42.687706 2.845846 5.691694 
45.533550 0.000000 5.691694 
45.533550 2.845846 8.537540 
48.379398 0.000000 8.537540 
48.379398 2.845846 5.691694 
51.225243 0.000000 5.691694 
51.225243 2.845846 8.537540 
54.071091 0.000000 8.537540 
54.071091 2.845846 5.691694 
0.000000 5.691694 5.691694 
0.000000 8.537540 8.537540 
2.845846 5.691694 8.537540 
2.845846 8.537540 5.691694 
5.691694 5.691694 5.691694 
5.691694 8.537540 8.537540 
8.537540 5.691694 8.537540 
8.537540 8.537540 5.691694 
11.383389 5.691694 5.691694 
11.383389 8.537540 8.537540 
14.229235 5.691694 8.537540 
14.229235 8.537540 5.691694 
17.075081 5.691694 5.691694 
17.075081 8.537540 8.537540 
19.920927 5.691694 8.537540 
19.920927 8.537540 5.691694 
22.766775 5.691694 5.691694 
22.766775 8.537540 8.537540 
25.612621 5.691694 8.537540 
25.612621 8.537540 5.691694 
28.458469 5.691694 5.691694 
28.458469 8.537540 8.537540 
31.304316 5.691694 8.537540 
31.304316 8.537540 5.691694 
34.150162 5.691694 5.691694 
34.150162 8.537540 8.537540 
36.996010 5.691694 8.537540 
36.996010 8.537540 5.691694 
39.841858 5.691694 5.691694 
39.841858 8.537540 8.537540 
42.687706 5.691694 8.537540 
42.687706 8.537540 5.691694 
45.533550 5.691694 5.691694 
45.533550 8.537540 8.537540 
48.379398 5.691694 8.537540 
48.379398 8.537540 5.691694 
51.225243 5.691694 5.691694 
51.225243 8.537540 8.537540 
54.071091 5.691694 8.537540 
54.071091 8.537540 5.691694 
0.000000 11.383389 5.691694 
0.000000 14.229235 8.537540 
2.845846 11.383389 8.537540 
2.845846 14.229235 5.691694 
5.691694 11.383389 5.691694 
5.691694 14.229235 8.537540 
8.537540 11.383389 8.537540 
8.537540 14.229235 5.691694 
11.383389 11.383389 5.691694 
11.383389 14.229235 8.537540 
14.229235 11.383389 8.537540 
14.229235 14.229235 5.691694 
17.075081 11.383389 5.691694 
17.075081 14.229235 8.537540 
19.920927 11.383389 8.537540 
19.920927 14.229235 5.691694 
22.766775 11.383389 5.691694 
22.766775 14.229235 8.537540 
25.612621 11.383389 8.537540 
25.612621 14.229235 5.691694 
28.458469 11.383389 5.691694 
28.458469 14.229235 8.537540 
31.304316 11.383389 8.537540 
31.304316 14.229235 5.691694 
34.150162 11.383389 5.691694 
34.150162 14.229235 8.537540 
36.996010 11.383389 8.537540 
36.996010 14.229235 5.691694 
39.841858 11.383389 5.691694 
39.841858 14.229235 8.537540 
42.687706 11.383389 8.537540 
42.687706 14.229235 5.691694 
45.533550 11.383389 5.691694 
45.533550 14.229235 8.537540 
48.379398 11.383389 8.537540 
48.379398 14.229235 5.691694 
51.225243 11.383389 5.691694 
51.225243 14.229235 8.537540 
54.071091 11.383389 8.537540 
54.071091 14.229235 5.691694 
0.000000 17.075081 5.691694 
0.000000 19.920927 8.537540 
2.845846 17.075081 8.537540 
2.845846 19.920927 5.691694 
5.691694 17.075081 5.691694 
5.691694 19.920927 8.537540 
8.537540 17.075081 8.537540 
8.537540 19.920927 5.691694 
11.383389 17.075081 5.691694 
11.383389 19.920927 8.537540 
14.229235 17.075081 8.537540 
14.229235 19.920927 5.691694 
17.075081 17.075081 5.691694 
17.075081 19.920927 8.537540 
19.920927 17.075081 8.537540 
19.920927 19.920927 5.691694 
22.766775 17.075081 5.691694 
22.766775 19.920927 8.537540 
25.612621 17.075081 8.537540 
25.612621 19.920927 5.691694 
28.458469 17.075081 5.691694 
28.458469 19.920927 8.537540 
31.304316 17.075081 8.537540 
31.304316 19.920927 5.691694 
34.150162 17.075081 5.691694 
34.150162 19.920927 8.537540 
36.996010 17.075081 8.537540 
36.996010 19.920927 5.691694 
39.841858 17.075081 5.691694 
39.841858 19.920927 8.537540 
42.687706 17.075081 8.537540 
42.687706 19.920927 5.691694 
45.533550 17.075081 5.691694 
45.533550 19.920927 8.537540 
48.379398 17.075081 8.537540 
48.379398 19.920927 5.691694 
51.225243 17.075081 5.691694 
51.225243 19.920927 8.537540 
54.071091 17.075081 8.537540 
54.071091 19.920927 5.691694 
0.000000 22.766775 5.691694 
0.000000 25.612621 8.537540 
2.845846 22.766775 8.537540 
2.845846 25.612621 5.691694 
5.691694 22.766775 5.691694 
5.691694 25.612621 8.537540 
8.537540 22.766775 8.537540 
8.537540 25.612621 5.691694 
11.383389 22.766775 5.691694 
11.383389 25.612621 8.537540 
14.229235 22.766775 8.537540 
14.229235 25.612621 5.691694 
17.075081 22.766775 5.691694 
17.075081 25.612621 8.537540 
19.920927 22.766775 8.537540 
19.920927 25.612621 5.691694 
22.766775 22.766775 5.691694 
22.766775 25.612621 8.537540 
25.612621 22.766775 8.537540 
25.612621 25.612621 5.691694 
28.458469 22.766775 5.691694 
28.458469 25.612621 8.537540 
31.304316 22.766775 8.537540 
31.304316 25.612621 5.691694 
34.150162 22.766775 5.691694 
34.150162 25.612621 8.537540 
36.996010 22.766775 8.537540 
36.996010 25.612621 5.691694 
39.841858 22.766775 5.691694 
39.841858 25.612621 8.537540 
42.687706 22.766775 8.537540 
42.687706 25.612621 5.691694 
45.533550 22.766775 5.691694 
45.533550 25.612621 8.537540 
48.379398 22.766775 8.537540 
48.379398 25.612621 5.691694 
51.225243 22.766775 5.691694 
51.225243 25.612621 8.537540 
54.071091 22.766775 8.537540 
54.071091 25.612621 5.691694 
0.000000 28.458469 5.691694 
0.000000 31.304316 8.537540 
2.845846 28.458469 8.537540 
2.845846 31.304316 5.691694 
5.691694 28.458469 5.691694 
5.691694 31.304316 8.537540 
8.537540 28.458469 8.537540 
8.537540 31.304316 5.691694 
11.383389 28.458469 5.691694 
11.383389 31.304316 8.537540 
14.229235 28.458469 8.537540 
14.229235 31.304316 5.691694 
17.075081 28.458469 5.691694 
17.075081 31.304316 8.537540 
19.920927 28.458469 8.537540 
19.920927 31.304316 5.691694 
22.766775 28.458469 5.691694 
22.766775 31.304316 8.537540 
25.612621 28.458469 8.537540 
25.612621 31.304316 5.691694 
28.458469 28.458469 5.691694 
28.458469 31.304316 8.537540 
31.304316 28.458469 8.537540 
31.304316 31.304316 5.691694 
34.150162 28.458469 5.691694 
34.150162 31.304316 8.537540 
36.996010 28.458469 8.537540 
36.996010 31.304316 5.691694 
39.841858 28.458469 5.691694 
39.841858 31.304316 8.537540 
42.687706 28.458469 8.537540 
42.687706 31.304316 5.691694 
45.533550 28.458469 5.691694 
45.533550 31.304316 8.537540 
48.379398 28.458469 8.537540 
48.379398 31.304316 5.691694 
51.225243 28.458469 5.691694 
51.225243 31.304316 8.537540 
54.071091 28.458469 8.537540 
54.071091 31.304316 5.691694 
0.000000 34.150162 5.691694 
0.000000 36.996010 8.537540 
2.845846 34.150162 8.537540 
2.845846 36.996010 5.691694 
5.691694 34.150162 5.691694 
5.691694 36.996010 8.537540 
8.537540 34.150162 8.537540 
8.537540 36.996010 5.691694 
11.383389 34.150162 5.691694 
11.383389 36.996010 8.537540 
14.229235 34.150162 8.537540 
14.229235 36.996010 5.691694 
17.075081 34.150162 5.691694 
17.075081 36.996010 8.537540 
19.920927 34.150162 8.537540 
19.920927 36.996010 5.691694 
22.766775 34.150162 5.691694 
22.766775 36.996010 8.537540 
25.612621 34.150162 8.537540 
25.612621 36.996010 5.691694 
28.458469 34.150162 5.691694 
28.458469 36.996010 8.537540 
31.304316 34.150162 8.537540 
31.304316 36.996010 5.691694 
34.150162 34.150162 5.691694 
34.150162 36.996010 8.537540 
36.996010 34.150162 8.537540 
36.996010 36.996010 5.691694 
39.841858 34.150162 5.691694 
39.841858 36.996010 8.537540 
42.687706 34.150162 8.537540 
42.687706 36.996010 5.691694 
45.533550 34.150162 5.691694 
45.533550 36.996010 8.537540 
48.379398 34.150162 8.537540 
48.379398 36.996010 5.691694 
51.225243 34.150162 5.691694 
51.225243 36.996010 8.537540 
54.071091 34.150162 8.537540 
54.071091 36.996010 5.691694 
0.000000 39.841858 5.691694 
0.000000 42.687706 8.537540 
2.845846 39.841858 8.537540 
2.845846 42.687706 5.691694 
5.691694 39.841858 5.691694 
5.691694 42.687706 8.537540 
8.537540 39.841858 8.537540 
8.537540 42.687706 5.691694 
11.383389 39.841858 5.691694 
11.383389 42.687706 8.537540 
14.229235 39.841858 8.537540 
14.229235 42.687706 5.691694 
17.075081 39.841858 5.691694 
17.075081 42.687706 8.537540 
19.920927 39.841858 8.537540 
19.920927 42.687706 5.691694 
22.766775 39.841858 5.691694 
22.766775 42.687706 8.537540 
25.612621 39.841858 8.537540 
25.612621 42.687706 5.691694 
28.458469 39.841858 5.691694 
28.458469 42.687706 8.537540 
31.304316 39.841858 8.537540 
31.304316 42.687706 5.691694 
34.150162 39.841858 5.691694 
34.150162 42.687706 8.537540 
36.996010 39.841858 8.537540 
36.996010 42.687706 5.691694 
39.841858 39.841858 5.691694 
39.841858 42.687706 8.537540 
42.687706 39.841858 8.537540 
42.687706 42.687706 5.691694 
45.533550 39.841858 5.691694 
45.533550 42.687706 8.537540 
48.379398 39.841858 8.537540 
48.379398 42.687706 5.691694 
51.225243 39.841858 5.691694 
51.225243 42.687706 8.537540 
54.071091 39.841858 8.537540 
54.071091 42.687706 5.691694 
0.000000 45.533550 5.691694 
0.000000 48.379398 8.537540 
2.845846 45.533550 8.537540 
2.845846 48.379398 5.691694 
5.691694 45.533550 5.691694 
5.691694 48.379398 8.537540 
8.537540 45.533550 8.537540 
8.537540 48.379398 5.691694 
11.383389 45.533550 5.691694 
11.383389 48.379398 8.537540 
14.229235 45.533550 8.537540 
14.229235 48.379398 5.691694 
17.075081 45.533550 5.691694 
17.075081 48.379398 8.537540 
19.920927 45.533550 8.537540 
19.920927 48.379398 5.691694 
22.766775 45.533550 5.691694 
22.766775 48.379398 8.537540 
25.612621 45.533550 8.537540 
25.612621 48.379398 5.691694 
28.458469 45.533550 5.691694 
28.458469 48.379398 8.537540 
31.304316 45.533550 8.537540 
31.304316 48.379398 5.691694 
34.150162 45.533550 5.691694 
34.150162 48.379398 8.537540 
36.996010 45.533550 8.537540 
36.996010 48.379398 5.691694 
39.841858 45.533550 5.691694 
39.841858 48.379398 8.537540 
42.687706 45.533550 8.537540 
42.687706 48.379398 5.691694 
45.533550 45.533550 5.691694 
45.533550 48.379398 8.537540 
48.379398 45.533550 8.537540 
48.379398 48.379398 5.691694 
51.225243 45.533550 5.691694 
51.225243 48.379398 8.537540 
54.071091 45.533550 8.537540 
54.071091 48.379398 5.691694 
0.000000 51.225243 5.691694 
0.000000 54.071091 8.537540 
2.845846 51.225243 8.537540 
2.845846 54.071091 5.691694 
5.691694 51.225243 5.691694 
5.691694 54.071091 8.537540 
8.537540 51.225243 8.537540 
8.537540 54.071091 5.691694 
11.383389 51.225243 5.691694 
11.383389 54.071091 8.537540 
14.229235 51.225243 8.537540 
14.229235 54.071091 5.691694 
17.075081 51.225243 5.691694 
17.075081 54.071091 8.537540 
19.920927 51.225243 8.537540 
19.920927 54.071091 5.691694 
22.766775 51.225243 5.691694 
22.766775 54.071091 8.537540 
25.612621 51.225243 8.537540 
25.612621 54.071091 5.691694 
28.458469 51.225243 5.691694 
28.458469 54.071091 8.537540 
31.304316 51.225243 8.537540 
31.304316 54.071091 5.691694 
34.150162 51.225243 5.691694 
34.150162 54.071091 8.537540 
36.996010 51.225243 8.537540 
36.996010 54.071091 5.691694 
39.841858 51.225243 5.691694 
39.841858 54.071091 8.537540 
42.687706 51.225243 8.537540 
42.687706 54.071091 5.691694 
45.533550 51.225243 5.691694 
45.533550 54.071091 8.537540 
48.379398 51.225243 8.537540 
48.379398 54.071091 5.691694 
51.225243 51.225243 5.691694 
51.225243 54.071091 8.537540 
54.071091 51.225243 8.537540 
54.071091 54.071091 5.691694 
0.000000 0.000000 11.383389 
0.000000 2.845846 14.229235 
2.845846 0.000000 14.229235 
2.845846 2.845846 11.383389 
5.691694 0.000000 11.383389 
5.691694 2.845846 14.229235 
8.537540 0.000000 14.229235 
8.537540 2.845846 11.383389 
11.383389 0.000000 11.383389 
11.383389 2.845846 14.229235 
14.229235 0.000000 14.229235 
14.229235 2.845846 11.383389 
17.075081 0.000000 11.383389 
17.075081 2.845846 14.229235 
19.920927 0.000000 14.229235 
19.920927 2.845846 11.383389 
22.766775 0.000000 11.383389 
22.766775 2.845846 14.229235 
25.612621 0.000000 14.229235 
25.612621 2.845846 11.383389 
28.458469 0.000000 11.383389 
28.458469 2.845846 14.229235 
31.304316 0.000000 14.229235 
31.304316 2.845846 11.383389 
34.150162 0.000000 11.383389 
34.150162 2.845846 14.229235 
36.996010 0.000000 14.229235 
36.996010 2.845846 11.383389 
39.841858 0.000000 11.383389 
39.841858 2.845846 14.229235 
42.687706 0.000000 14.229235 
42.687706 2.845846 11.383389 
45.533550 0.000000 11.383389 
45.533550 2.845846 14.229235 
48.379398 0.000000 14.229235 
48.379398 2.845846 11.383389 
51.225243 0.000000 11.383389 
51.225243 2.845846 14.229235 
54.071091 0.000000 14.229235 
54.071091 2.845846 11.383389 
0.000000 5.691694 11.383389 
0.000000 8.537540 14.229235 
2.845846 5.691694 14.229235 
2.845846 8.537540 11.383389 
5.691694 5.691694 11.383389 
5.691694 8.537540 14.229235 
8.537540 5.691694 14.229235 
8.537540 8.537540 11.383389 
11.383389 5.691694 11.383389 
11.383389 8.537540 14.229235 
14.229235 5.691694 14.229235 
14.229235 8.537540 11.383389 
17.075081 5.691694 11.383389 
17.075081 8.537540 14.229235 
19.920927 5.691694 14.229235 
19.920927 8.537540 11.383389 
22.766775 5.691694 11.383389 
22.766775 8.537540 14.229235 
25.612621 5.691694 14.229235 
25.612621 8.537540 11.383389 
28.458469 5.691694 11.383389 
28.458469 8.537540 14.229235 
31.304316 5.691694 14.229235 
31.304316 8.537540 11.383389 
34.150162 5.691694 11.383389 
34.150162 8.537540 14.229235 
36.996010 5.691694 14.229235 
36.996010 8.537540 11.383389 
39.841858 5.691694 11.383389 
39.841858 8.537540 14.229235 
42.687706 5.691694 14.229235 
42.687706 8.537540 11.383389 
45.533550 5.691694 11.383389 
45.533550 8.537540 14.229235 
48.379398 5.691694 14.229235 
48.379398 8.537540 11.383389 
51.225243 5.691694 11.383389 
51.225243 8.537540 14.229235 
54.071091 5.691694 14.229235 
54.071091 8.537540 11.383389 
0.000000 11.383389 11.383389 
0.000000 14.229235 14.229235 
2.845846 11.383389 14.229235 
2.845846 14.229235 11.383389 
5.691694 11.383389 11.383389 
5.691694 14.229235 14.229235 
8.537540 11.383389 14.229235 
8.537540 14.229235 11.383389 
11.383389 11.383389 11.383389 
11.383389 14.229235 14.229235 
14.229235 11.383389 14.229235 
14.229235 14.229235 11.383389 
17.075081 11.383389 11.383389 
17.075081 14.229235 14.229235 
19.920927 11.383389 14.229235 
19.920927 14.229235 11.383389 
22.766775 11.383389 11.383389 
22.766775 14.229235 14.229235 
25.612621 11.383389 14.229235 
25.612621 14.229235 11.383389 
28.458469 11.383389 11.383389 
28.458469 14.229235 14.229235 
31.304316 11.383389 14.229235 
31.304316 14.229235 11.383389 
34.150162 11.383389 11.383389 
34.150162 14.229235 14.229235 
36.996010 11.383389 14.229235 
36.996010 14.229235 11.383389 
39.841858 11.383389 11.383389 
39.841858 14.229235 14.229235 
42.687706 11.383389 14.229235 
42.687706 14.229235 11.383389 
45.533550 11.383389 11.383389 
45.533550 14.229235 14.229235 
48.379398 11.383389 14.229235 
48.379398 14.229235 11.383389 
51.225243 11.383389 11.383389 
51.225243 14.229235 14.229235 
54.071091 11.383389 14.229235 
54.071091 14.229235 11.383389 
0.000000 17.075081 11.383389 
0.000000 19.920927 14.229235 
2.845846 17.075081 14.229235 
2.845846 19.920927 11.383389 
5.691694 17.075081 11.383389 
5.691694 19.920927 14.229235 
8.537540 17.075081 14.229235 
8.537540 19.920927 11.383389 
11.383389 17.075081 11.383389 
11.383389 19.920927 14.229235 
14.229235 17.075081 14.229235 
14.229235 19.920927 11.383389 
17.075081 17.075081 11.383389 
17.075081 19.920927 14.229235 
19.920927 17.075081 14.229235 
19.920927 19.920927 11.383389 
22.766775 17.075081 11.383389 
22.766775 19.920927 14.229235 
25.612621 17.075081 14.229235 
25.612621 19.920927 11.383389 
28.458469 17.075081 11.383389 
28.458469 19.920927 14.229235 
31.304316 17.075081 14.229235 
31.304316 19.920927 11.383389 
34.150162 17.075081 11.383389 
34.150162 19.920927 14.229235 
36.996010 17.075081 14.229235 
36.996010 19.920927 11.383389 
39.841858 17.075081 11.383389 
39.841858 19.920927 14.229235 
42.687706 17.075081 14.229235 
42.687706 19.920927 11.383389 
45.533550 17.075081 11.383389 
45.533550 19.920927 14.229235 
48.379398 17.075081 14.229235 
48.379398 19.920927 11.383389 
51.225243 17.075081 11.383389 
51.225243 19.920927 14.229235 
54.071091 17.075081 14.229235 
54.071091 19.920927 11.383389 
0.000000 22.766775 11.383389 
0.000000 25.612621 14.229235 
2.845846 22.766775 14.229235 
2.845846 25.612621 11.383389 
5.691694 22.766775 11.383389 
5.691694 25.612621 14.229235 
8.537540 22.766775 14.229235 
8.537540 25.612621 11.383389 
11.383389 22.766775 11.383389 
11.383389 25.612621 14.229235 
14.229235 22.766775 14.229235 
14.229235 25.612621 11.383389 
17.075081 22.766775 11.383389 
17.075081 25.612621 14.229235 
19.920927 22.766775 14.229235 
19.920927 25.612621 11.383389 
22.766775 22.766775 11.383389 
25.612621 25.612621 11.383389 
28.458469 22.766775 11.383389 
31.304316 25.612621 11.383389 
34.150162 22.766775 11.383389 
36.996010 22.766775 14.229235 
36.996010 25.612621 11.383389 
39.841858 22.766775 11.383389 
39.841858 25.612621 14.229235 
42.687706 22.766775 14.229235 
42.687706 25.612621 11.383389 
45.533550 22.766775 11.383389 
45.533550 25.612621 14.229235 
48.379398 22.766775 14.229235 
48.379398 25.612621 11.383389 
51.225243 22.766775 11.383389 
51.225243 25.612621 14.229235 
54.071091 22.766775 14.229235 
54.071091 25.612621 11.383389 
0.000000 28.458469 11.383389 
0.000000 31.304316 14.229235 
2.845846 28.458469 14.229235 
2.845846 31.304316 11.383389 
5.691694 28.458469 11.383389 
5.691694 31.304316 14.229235 
8.537540 28.458469 14.229235 
8.537540 31.304316 11.383389 