Pd4
1.000000
3.953336 0.000000 0.000000
0.000000 3.953336 0.000000
0.000000 0.000000 3.953336
Pd 
4 
Selective dynamics
Cartesian
0.000000 0.000000 0.000000 T T T
0.000000 1.976668 1.976668 T T T
1.976668 0.000000 1.976668 F F T
1.976668 1.976668 0.000000 F F T
