Cr2
1.000000
2.849623 -2.849623 0.000000
1.043034 3.892658 -0.000000
0.000000 0.000000 4.935692
Cr 
6 
Selective dynamics
Cartesian
1.645230 1.645230 0.822616   T T T
0.000000 0.000000 0.000000   T T T
0.000000 0.000000 2.467846   T T T
2.247428 -0.602197 1.645231   T T T
2.247428 -0.602197 4.113077   T T T
1.645231 1.645231 3.290462   T T T
