Cr2
1.000000
2.849623 -2.849623 0.000000
2.014987 2.014987 -0.000000
0.000000 0.000000 4.029975
Cr 
4 
Selective dynamics
Cartesian
2.432305 -0.417318 0.000000   T T T
1.007494 1.007494 2.014987   T T T
0.000000 0.000000 0.000000   T T T
1.424812 -1.424812 2.014988   T T T
