W2
1.000000
15.937065 0.000000 0.000000
0.000000 15.937065 0.000000
0.000000 0.000000 15.937065
W 
250 
Cartesian
0.000000 0.000000 0.000000 
1.593706 1.593706 1.593706 
3.187413 0.000000 0.000000 
4.781119 1.593706 1.593706 
6.374826 0.000000 0.000000 
7.968533 1.593706 1.593706 
9.562239 0.000000 0.000000 
11.155945 1.593706 1.593706 
12.749652 0.000000 0.000000 
14.343358 1.593706 1.593706 
0.000000 3.187413 0.000000 
1.593706 4.781119 1.593706 
3.187413 3.187413 0.000000 
4.781119 4.781119 1.593706 
6.374826 3.187413 0.000000 
7.968533 4.781119 1.593706 
9.562239 3.187413 0.000000 
11.155945 4.781119 1.593706 
12.749652 3.187413 0.000000 
14.343358 4.781119 1.593706 
0.000000 6.374826 0.000000 
1.593706 7.968533 1.593706 
3.187413 6.374826 0.000000 
4.781119 7.968533 1.593706 
6.374826 6.374826 0.000000 
7.968533 7.968533 1.593706 
9.562239 6.374826 0.000000 
11.155945 7.968533 1.593706 
12.749652 6.374826 0.000000 
14.343358 7.968533 1.593706 
0.000000 9.562239 0.000000 
1.593706 11.155945 1.593706 
3.187413 9.562239 0.000000 
4.781119 11.155945 1.593706 
6.374826 9.562239 0.000000 
7.968533 11.155945 1.593706 
9.562239 9.562239 0.000000 
11.155945 11.155945 1.593706 
12.749652 9.562239 0.000000 
14.343358 11.155945 1.593706 
0.000000 12.749652 0.000000 
1.593706 14.343358 1.593706 
3.187413 12.749652 0.000000 
4.781119 14.343358 1.593706 
6.374826 12.749652 0.000000 
7.968533 14.343358 1.593706 
9.562239 12.749652 0.000000 
11.155945 14.343358 1.593706 
12.749652 12.749652 0.000000 
14.343358 14.343358 1.593706 
0.000000 0.000000 3.187413 
1.593706 1.593706 4.781119 
3.187413 0.000000 3.187413 
4.781119 1.593706 4.781119 
6.374826 0.000000 3.187413 
7.968533 1.593706 4.781119 
9.562239 0.000000 3.187413 
11.155945 1.593706 4.781119 
12.749652 0.000000 3.187413 
14.343358 1.593706 4.781119 
0.000000 3.187413 3.187413 
1.593706 4.781119 4.781119 
3.187413 3.187413 3.187413 
4.781119 4.781119 4.781119 
6.374826 3.187413 3.187413 
7.968533 4.781119 4.781119 
9.562239 3.187413 3.187413 
11.155945 4.781119 4.781119 
12.749652 3.187413 3.187413 
14.343358 4.781119 4.781119 
0.000000 6.374826 3.187413 
1.593706 7.968533 4.781119 
3.187413 6.374826 3.187413 
4.781119 7.968533 4.781119 
6.374826 6.374826 3.187413 
7.968533 7.968533 4.781119 
9.562239 6.374826 3.187413 
11.155945 7.968533 4.781119 
12.749652 6.374826 3.187413 
14.343358 7.968533 4.781119 
0.000000 9.562239 3.187413 
1.593706 11.155945 4.781119 
3.187413 9.562239 3.187413 
4.781119 11.155945 4.781119 
6.374826 9.562239 3.187413 
7.968533 11.155945 4.781119 
9.562239 9.562239 3.187413 
11.155945 11.155945 4.781119 
12.749652 9.562239 3.187413 
14.343358 11.155945 4.781119 
0.000000 12.749652 3.187413 
1.593706 14.343358 4.781119 
3.187413 12.749652 3.187413 
4.781119 14.343358 4.781119 
6.374826 12.749652 3.187413 
7.968533 14.343358 4.781119 
9.562239 12.749652 3.187413 
11.155945 14.343358 4.781119 
12.749652 12.749652 3.187413 
14.343358 14.343358 4.781119 
0.000000 0.000000 6.374826 
1.593706 1.593706 7.968533 
3.187413 0.000000 6.374826 
4.781119 1.593706 7.968533 
6.374826 0.000000 6.374826 
7.968533 1.593706 7.968533 
9.562239 0.000000 6.374826 
11.155945 1.593706 7.968533 
12.749652 0.000000 6.374826 
14.343358 1.593706 7.968533 
0.000000 3.187413 6.374826 
1.593706 4.781119 7.968533 
3.187413 3.187413 6.374826 
4.781119 4.781119 7.968533 
6.374826 3.187413 6.374826 
7.968533 4.781119 7.968533 
9.562239 3.187413 6.374826 
11.155945 4.781119 7.968533 
12.749652 3.187413 6.374826 
14.343358 4.781119 7.968533 
0.000000 6.374826 6.374826 
1.593706 7.968533 7.968533 
3.187413 6.374826 6.374826 
4.781119 7.968533 7.968533 
6.374826 6.374826 6.374826 
7.968533 7.968533 7.968533 
9.562239 6.374826 6.374826 
11.155945 7.968533 7.968533 
12.749652 6.374826 6.374826 
14.343358 7.968533 7.968533 
0.000000 9.562239 6.374826 
1.593706 11.155945 7.968533 
3.187413 9.562239 6.374826 
4.781119 11.155945 7.968533 
6.374826 9.562239 6.374826 
7.968533 11.155945 7.968533 
9.562239 9.562239 6.374826 
11.155945 11.155945 7.968533 
12.749652 9.562239 6.374826 
14.343358 11.155945 7.968533 
0.000000 12.749652 6.374826 
1.593706 14.343358 7.968533 
3.187413 12.749652 6.374826 
4.781119 14.343358 7.968533 
6.374826 12.749652 6.374826 
7.968533 14.343358 7.968533 
9.562239 12.749652 6.374826 
11.155945 14.343358 7.968533 
12.749652 12.749652 6.374826 
14.343358 14.343358 7.968533 
0.000000 0.000000 9.562239 
1.593706 1.593706 11.155945 
3.187413 0.000000 9.562239 
4.781119 1.593706 11.155945 
6.374826 0.000000 9.562239 
7.968533 1.593706 11.155945 
9.562239 0.000000 9.562239 
11.155945 1.593706 11.155945 
12.749652 0.000000 9.562239 
14.343358 1.593706 11.155945 
0.000000 3.187413 9.562239 
1.593706 4.781119 11.155945 
3.187413 3.187413 9.562239 
4.781119 4.781119 11.155945 
6.374826 3.187413 9.562239 
7.968533 4.781119 11.155945 
9.562239 3.187413 9.562239 
11.155945 4.781119 11.155945 
12.749652 3.187413 9.562239 
14.343358 4.781119 11.155945 
0.000000 6.374826 9.562239 
1.593706 7.968533 11.155945 
3.187413 6.374826 9.562239 
4.781119 7.968533 11.155945 
6.374826 6.374826 9.562239 
7.968533 7.968533 11.155945 
9.562239 6.374826 9.562239 
11.155945 7.968533 11.155945 
12.749652 6.374826 9.562239 
14.343358 7.968533 11.155945 
0.000000 9.562239 9.562239 
1.593706 11.155945 11.155945 
3.187413 9.562239 9.562239 
4.781119 11.155945 11.155945 
6.374826 9.562239 9.562239 
7.968533 11.155945 11.155945 
9.562239 9.562239 9.562239 
11.155945 11.155945 11.155945 
12.749652 9.562239 9.562239 
14.343358 11.155945 11.155945 
0.000000 12.749652 9.562239 
1.593706 14.343358 11.155945 
3.187413 12.749652 9.562239 
4.781119 14.343358 11.155945 
6.374826 12.749652 9.562239 
7.968533 14.343358 11.155945 
9.562239 12.749652 9.562239 
11.155945 14.343358 11.155945 
12.749652 12.749652 9.562239 
14.343358 14.343358 11.155945 
0.000000 0.000000 12.749652 
1.593706 1.593706 14.343358 
3.187413 0.000000 12.749652 
4.781119 1.593706 14.343358 
6.374826 0.000000 12.749652 
7.968533 1.593706 14.343358 
9.562239 0.000000 12.749652 
11.155945 1.593706 14.343358 
12.749652 0.000000 12.749652 
14.343358 1.593706 14.343358 
0.000000 3.187413 12.749652 
1.593706 4.781119 14.343358 
3.187413 3.187413 12.749652 
4.781119 4.781119 14.343358 
6.374826 3.187413 12.749652 
7.968533 4.781119 14.343358 
9.562239 3.187413 12.749652 
11.155945 4.781119 14.343358 
12.749652 3.187413 12.749652 
14.343358 4.781119 14.343358 
0.000000 6.374826 12.749652 
1.593706 7.968533 14.343358 
3.187413 6.374826 12.749652 
4.781119 7.968533 14.343358 
6.374826 6.374826 12.749652 
7.968533 7.968533 14.343358 
9.562239 6.374826 12.749652 
11.155945 7.968533 14.343358 
12.749652 6.374826 12.749652 
14.343358 7.968533 14.343358 
0.000000 9.562239 12.749652 
1.593706 11.155945 14.343358 
3.187413 9.562239 12.749652 
4.781119 11.155945 14.343358 
6.374826 9.562239 12.749652 
7.968533 11.155945 14.343358 
9.562239 9.562239 12.749652 
11.155945 11.155945 14.343358 
12.749652 9.562239 12.749652 
14.343358 11.155945 14.343358 
0.000000 12.749652 12.749652 
1.593706 14.343358 14.343358 
3.187413 12.749652 12.749652 
4.781119 14.343358 14.343358 
6.374826 12.749652 12.749652 
7.968533 14.343358 14.343358 
9.562239 12.749652 12.749652 
11.155945 14.343358 14.343358 
12.749652 12.749652 12.749652 
14.343358 14.343358 14.343358 
