W2
1.000000
7.807530 0.000000 0.000000
0.000000 4.507680 0.000000
0.000000 0.000000 2.760370
W 
6 
Cartesian
3.934365 2.305169 0.063343 
0.030594 0.051328 0.061288 
1.330879 2.305169 1.902227 
5.234642 0.051328 1.904284 
6.536386 2.305169 0.984850 
2.632622 0.051328 0.982790 
